Re1 C124 N2                             
   1.00000000000000     
    19.8123627239679756   -0.0368416927786810   -0.0000984915796952
    -9.9382245641911560   17.0626280235647556    0.0002042914357622
    -0.0001486480597303    0.0002698051005305   29.7982322651092097
   Re   C    N 
     1   124     2
Direct
  0.4375127072172344  0.4999998330731439  0.4264013856841206
  0.0423956923566414  0.0843171802669545  0.3999318799501930
  0.0420474947953894  0.2088515605666292  0.3998752590349388
  0.0412651549085347  0.3333880843942070  0.3998563403511271
  0.0407769273117534  0.4584699847545193  0.3998632541946692
  0.0411384315677227  0.5837774624196662  0.4000541757991886
  0.0416070168513484  0.7089957757602333  0.4000810408119774
  0.0418311153897200  0.8340946709237149  0.4000322123390363
  0.0421178380715488  0.9593051527098820  0.4000123095614422
  0.1680286278505096  0.0854327895978029  0.3998600265610419
  0.1684757101786559  0.2108274792286215  0.3999403998354651
  0.1670323828780874  0.3348069838248139  0.3995687957373006
  0.1648059162251387  0.4591315440322045  0.3995994440068497
  0.1650687579282422  0.5840853329189060  0.3993408895561116
  0.1660193586233357  0.7091185185898315  0.3999443249218912
  0.1666002586240497  0.8342421706980089  0.4000927246157542
  0.1671078549942689  0.9595721800025331  0.3999777544809831
  0.2924081458721606  0.0848703604427729  0.3998341776196473
  0.2943132761412015  0.2119400592440025  0.4004143900818626
  0.2952170886440199  0.3387032605760008  0.4003898856472562
  0.2893479846000253  0.4611249944066546  0.4001946603243718
  0.2886819901012266  0.5849310028825465  0.3999571537879639
  0.2904356152586735  0.7093820653595444  0.3995886048410088
  0.2913327032101998  0.8341877048238023  0.3999800834860359
  0.2918168619310948  0.9592677324649642  0.4000193487948062
  0.4169921176437084  0.0835796190073209  0.3998009453437840
  0.4177006615241595  0.2091067287917129  0.3994725087856504
  0.4209403793236261  0.3361383810885732  0.4033854306636760
  0.4145534204071324  0.7075030170991140  0.4003482431284091
  0.4159944561056349  0.8330580551218203  0.3994718342834722
  0.4165660316314899  0.9583389736258608  0.4000768592409994
  0.5417075062898271  0.0825098171947600  0.4000952560722774
  0.5422297465902607  0.2074691944154659  0.3996434046554940
  0.5435889733361219  0.3320959455327200  0.4000442366530405
  0.5455360216241778  0.4554012958173211  0.4024311680258165
  0.5415062946902627  0.5775617119265117  0.4005429368330553
  0.5377887663024266  0.7036134919754804  0.4017276786134311
  0.5404438326796790  0.8313780419366008  0.3999257206237061
  0.5412778162652495  0.9572390151520945  0.3998990600815366
  0.6664796787264105  0.0822196471591719  0.4000448464344965
  0.6669517284015123  0.2073708477870769  0.4000786859670292
  0.6678600279954520  0.3325216237711692  0.3995823865588740
  0.6692197863228956  0.4577105290311598  0.3991688560172497
  0.6683066485818893  0.5818105306383505  0.3996799338141949
  0.6644542317897699  0.7051840847948083  0.3997881712450366
  0.6645742264577900  0.8306089866055638  0.3999569505947254
  0.6658848383830898  0.9567800390408225  0.3998935057397892
  0.7913142054694895  0.0823165708112357  0.4000222007473580
  0.7916696782007150  0.2075186700209327  0.4000473856967276
  0.7921665206401030  0.3327408315412836  0.4000597823493911
  0.7928329311003378  0.4580234219379454  0.3997437566859285
  0.7929806225397754  0.5832069051738368  0.3997327346177304
  0.7915098582036958  0.7077132294864078  0.3997426624384160
  0.7904468488908062  0.8318828439063871  0.3999060523040420
  0.7907000581565740  0.9569058637973711  0.3998796634396174
  0.9165024448213823  0.0829304958553433  0.4000030178841338
  0.9165363559396965  0.2078281404326361  0.3999853513169023
  0.9165401194858270  0.3329429475665868  0.4000601388061850
  0.9167892546567650  0.4582488493138063  0.4001469247759365
  0.9171298268090652  0.5835583085226030  0.4000514486045921
  0.9168958586882654  0.7086396021879517  0.3999703627444743
  0.9166062859348707  0.8334666852797483  0.3999990380510253
  0.9164412292902113  0.9581656763496422  0.4000008123850134
  0.0843015133573631  0.0430852228762185  0.3999100520985781
  0.0845661863605065  0.1681164188736232  0.3999040488178512
  0.0834899845918469  0.2922982531912895  0.3997364200200752
  0.0820317417184718  0.4168118012467110  0.3997462218543014
  0.0821705215975899  0.5420007610337136  0.3997567572040170
  0.0828408888235753  0.6672576343356326  0.4000635650375454
  0.0833222699536007  0.7924681184132392  0.4000497545113110
  0.0836823892152681  0.9176618369646843  0.4000326394184200
  0.2091135329519639  0.0432088674747806  0.3998948240788293
  0.2104116293956642  0.1693920353699406  0.3999800076314750
  0.2105494433785355  0.2948148865660956  0.3997881334538204
  0.2066981560656873  0.4181902347329344  0.3996901362826487
  0.2058060019076266  0.5423115715849837  0.3991800458810044
  0.2071476526522208  0.6675031078756871  0.3995791664460612
  0.2080333937438278  0.7926272054621226  0.4000778190733571
  0.2085069615042614  0.9177639980560270  0.4000383453188612
  0.3337014139763680  0.0427446607653611  0.3998529107822983
  0.3345222129406967  0.1686104492907135  0.3999139680973122
  0.3372113946058647  0.2963956539432098  0.4017298254192357
  0.3334815788689970  0.4224369152321625  0.4005828491512611
  0.3294746985829771  0.5446065973638273  0.4024400277812598
  0.3314097279341697  0.6679137782445670  0.4000458093197085
  0.3327558278594134  0.7925481299997769  0.3996539431635711
  0.3332964144830873  0.9174841673769046  0.4000672489684797
  0.4584399200236249  0.0416525002444301  0.4000799632896573
  0.4589938577563509  0.1669428587922175  0.3994474446456380
  0.4604339213329114  0.2924944147214819  0.4003304170659222
  0.4540501295811176  0.6638566974857137  0.4034013767072603
  0.4572718789053604  0.7908867507632836  0.3994932326492959
  0.4579953159560350  0.9164035354349623  0.3998254313973263
  0.5831760547260189  0.0407174211632767  0.4000580024477607
  0.5836499841955634  0.1658156689975018  0.3999843082851642
  0.5845639365417566  0.2906401274275416  0.3995874800608974
  0.5863369223320410  0.4150787178336636  0.3999477382629927
  0.5856531424652027  0.5388844070319773  0.4001682148399178
  0.5797849393365089  0.6613022070230625  0.4003723507952007
  0.5806625471448650  0.7880564894713754  0.4004012184666765
  0.5825757394756563  0.9151278464182556  0.3998597505839599
  0.7078817918105241  0.0404053933683633  0.3999792464089380
  0.7083790154481042  0.1657399410536342  0.4000961543926992
  0.7089858460627310  0.2908867928480058  0.3999503846340978
  0.7099452073790540  0.4159446953085629  0.3993333359739601
  0.7102168231116790  0.5408873017647564  0.3995869788067445
  0.7079615467536265  0.6651911646041114  0.3995708415059995
  0.7065240017442764  0.7891718364946197  0.3999331531341782
  0.7069645496369047  0.9145606086783100  0.3998353394966365
  0.8329002598773870  0.0406923343284198  0.3999798531171846
  0.8331637835875506  0.1658886420740486  0.4000238868360086
  0.8334014050004576  0.2909936261092877  0.4000795354847212
  0.8338478734650498  0.4162226881067432  0.4000464502349803
  0.8342200003177304  0.5415428770432692  0.3998340467795812
  0.8337357621242070  0.6666282862788853  0.3998475287704185
  0.8329764199493358  0.7911545690786648  0.3998972412906253
  0.8326298823251378  0.9156844731852392  0.3999160212950904
  0.9585891690099692  0.0418379064692353  0.3999937733012118
  0.9584143909089728  0.1665345789419035  0.3999632821023096
  0.9581076424580284  0.2913613237239586  0.3999762096830851
  0.9578647095233674  0.4164290395173989  0.4000786495293509
  0.9582079722471863  0.5417346583352317  0.4001384336621360
  0.9584632082049241  0.6670473609302396  0.4000350019636927
  0.9584711953053510  0.7921634863980349  0.3999939699312546
  0.9585230728232373  0.9170739197187742  0.4000377716715451
  0.4095069834966695  0.5832814401594811  0.4089975848439911
  0.4655004597550378  0.4167146027387234  0.4089844015923090
 
  0.00000000E+00  0.00000000E+00  0.00000000E+00
  0.00000000E+00  0.00000000E+00  0.00000000E+00
  0.00000000E+00  0.00000000E+00  0.00000000E+00
  0.00000000E+00  0.00000000E+00  0.00000000E+00
  0.00000000E+00  0.00000000E+00  0.00000000E+00
  0.00000000E+00  0.00000000E+00  0.00000000E+00
  0.00000000E+00  0.00000000E+00  0.00000000E+00
  0.00000000E+00  0.00000000E+00  0.00000000E+00
  0.00000000E+00  0.00000000E+00  0.00000000E+00
  0.00000000E+00  0.00000000E+00  0.00000000E+00
  0.00000000E+00  0.00000000E+00  0.00000000E+00
  0.00000000E+00  0.00000000E+00  0.00000000E+00
  0.00000000E+00  0.00000000E+00  0.00000000E+00
  0.00000000E+00  0.00000000E+00  0.00000000E+00
  0.00000000E+00  0.00000000E+00  0.00000000E+00
  0.00000000E+00  0.00000000E+00  0.00000000E+00
  0.00000000E+00  0.00000000E+00  0.00000000E+00
  0.00000000E+00  0.00000000E+00  0.00000000E+00
  0.00000000E+00  0.00000000E+00  0.00000000E+00
  0.00000000E+00  0.00000000E+00  0.00000000E+00
  0.00000000E+00  0.00000000E+00  0.00000000E+00
  0.00000000E+00  0.00000000E+00  0.00000000E+00
  0.00000000E+00  0.00000000E+00  0.00000000E+00
  0.00000000E+00  0.00000000E+00  0.00000000E+00
  0.00000000E+00  0.00000000E+00  0.00000000E+00
  0.00000000E+00  0.00000000E+00  0.00000000E+00
  0.00000000E+00  0.00000000E+00  0.00000000E+00
  0.00000000E+00  0.00000000E+00  0.00000000E+00
  0.00000000E+00  0.00000000E+00  0.00000000E+00
  0.00000000E+00  0.00000000E+00  0.00000000E+00
  0.00000000E+00  0.00000000E+00  0.00000000E+00
  0.00000000E+00  0.00000000E+00  0.00000000E+00
  0.00000000E+00  0.00000000E+00  0.00000000E+00
  0.00000000E+00  0.00000000E+00  0.00000000E+00
  0.00000000E+00  0.00000000E+00  0.00000000E+00
  0.00000000E+00  0.00000000E+00  0.00000000E+00
  0.00000000E+00  0.00000000E+00  0.00000000E+00
  0.00000000E+00  0.00000000E+00  0.00000000E+00
  0.00000000E+00  0.00000000E+00  0.00000000E+00
  0.00000000E+00  0.00000000E+00  0.00000000E+00
  0.00000000E+00  0.00000000E+00  0.00000000E+00
  0.00000000E+00  0.00000000E+00  0.00000000E+00
  0.00000000E+00  0.00000000E+00  0.00000000E+00
  0.00000000E+00  0.00000000E+00  0.00000000E+00
  0.00000000E+00  0.00000000E+00  0.00000000E+00
  0.00000000E+00  0.00000000E+00  0.00000000E+00
  0.00000000E+00  0.00000000E+00  0.00000000E+00
  0.00000000E+00  0.00000000E+00  0.00000000E+00
  0.00000000E+00  0.00000000E+00  0.00000000E+00
  0.00000000E+00  0.00000000E+00  0.00000000E+00
  0.00000000E+00  0.00000000E+00  0.00000000E+00
  0.00000000E+00  0.00000000E+00  0.00000000E+00
  0.00000000E+00  0.00000000E+00  0.00000000E+00
  0.00000000E+00  0.00000000E+00  0.00000000E+00
  0.00000000E+00  0.00000000E+00  0.00000000E+00
  0.00000000E+00  0.00000000E+00  0.00000000E+00
  0.00000000E+00  0.00000000E+00  0.00000000E+00
  0.00000000E+00  0.00000000E+00  0.00000000E+00
  0.00000000E+00  0.00000000E+00  0.00000000E+00
  0.00000000E+00  0.00000000E+00  0.00000000E+00
  0.00000000E+00  0.00000000E+00  0.00000000E+00
  0.00000000E+00  0.00000000E+00  0.00000000E+00
  0.00000000E+00  0.00000000E+00  0.00000000E+00
  0.00000000E+00  0.00000000E+00  0.00000000E+00
  0.00000000E+00  0.00000000E+00  0.00000000E+00
  0.00000000E+00  0.00000000E+00  0.00000000E+00
  0.00000000E+00  0.00000000E+00  0.00000000E+00
  0.00000000E+00  0.00000000E+00  0.00000000E+00
  0.00000000E+00  0.00000000E+00  0.00000000E+00
  0.00000000E+00  0.00000000E+00  0.00000000E+00
  0.00000000E+00  0.00000000E+00  0.00000000E+00
  0.00000000E+00  0.00000000E+00  0.00000000E+00
  0.00000000E+00  0.00000000E+00  0.00000000E+00
  0.00000000E+00  0.00000000E+00  0.00000000E+00
  0.00000000E+00  0.00000000E+00  0.00000000E+00
  0.00000000E+00  0.00000000E+00  0.00000000E+00
  0.00000000E+00  0.00000000E+00  0.00000000E+00
  0.00000000E+00  0.00000000E+00  0.00000000E+00
  0.00000000E+00  0.00000000E+00  0.00000000E+00
  0.00000000E+00  0.00000000E+00  0.00000000E+00
  0.00000000E+00  0.00000000E+00  0.00000000E+00
  0.00000000E+00  0.00000000E+00  0.00000000E+00
  0.00000000E+00  0.00000000E+00  0.00000000E+00
  0.00000000E+00  0.00000000E+00  0.00000000E+00
  0.00000000E+00  0.00000000E+00  0.00000000E+00
  0.00000000E+00  0.00000000E+00  0.00000000E+00
  0.00000000E+00  0.00000000E+00  0.00000000E+00
  0.00000000E+00  0.00000000E+00  0.00000000E+00
  0.00000000E+00  0.00000000E+00  0.00000000E+00
  0.00000000E+00  0.00000000E+00  0.00000000E+00
  0.00000000E+00  0.00000000E+00  0.00000000E+00
  0.00000000E+00  0.00000000E+00  0.00000000E+00
  0.00000000E+00  0.00000000E+00  0.00000000E+00
  0.00000000E+00  0.00000000E+00  0.00000000E+00
  0.00000000E+00  0.00000000E+00  0.00000000E+00
  0.00000000E+00  0.00000000E+00  0.00000000E+00
  0.00000000E+00  0.00000000E+00  0.00000000E+00
  0.00000000E+00  0.00000000E+00  0.00000000E+00
  0.00000000E+00  0.00000000E+00  0.00000000E+00
  0.00000000E+00  0.00000000E+00  0.00000000E+00
  0.00000000E+00  0.00000000E+00  0.00000000E+00
  0.00000000E+00  0.00000000E+00  0.00000000E+00
  0.00000000E+00  0.00000000E+00  0.00000000E+00
  0.00000000E+00  0.00000000E+00  0.00000000E+00
  0.00000000E+00  0.00000000E+00  0.00000000E+00
  0.00000000E+00  0.00000000E+00  0.00000000E+00
  0.00000000E+00  0.00000000E+00  0.00000000E+00
  0.00000000E+00  0.00000000E+00  0.00000000E+00
  0.00000000E+00  0.00000000E+00  0.00000000E+00
  0.00000000E+00  0.00000000E+00  0.00000000E+00
  0.00000000E+00  0.00000000E+00  0.00000000E+00
  0.00000000E+00  0.00000000E+00  0.00000000E+00
  0.00000000E+00  0.00000000E+00  0.00000000E+00
  0.00000000E+00  0.00000000E+00  0.00000000E+00
  0.00000000E+00  0.00000000E+00  0.00000000E+00
  0.00000000E+00  0.00000000E+00  0.00000000E+00
  0.00000000E+00  0.00000000E+00  0.00000000E+00
  0.00000000E+00  0.00000000E+00  0.00000000E+00
  0.00000000E+00  0.00000000E+00  0.00000000E+00
  0.00000000E+00  0.00000000E+00  0.00000000E+00
  0.00000000E+00  0.00000000E+00  0.00000000E+00
  0.00000000E+00  0.00000000E+00  0.00000000E+00
  0.00000000E+00  0.00000000E+00  0.00000000E+00
  0.00000000E+00  0.00000000E+00  0.00000000E+00
  0.00000000E+00  0.00000000E+00  0.00000000E+00
  0.00000000E+00  0.00000000E+00  0.00000000E+00
  0.00000000E+00  0.00000000E+00  0.00000000E+00
