Pt1 C124 N2                             
   1.00000000000000     
    19.8631420312454985   -0.0012255421563820    0.0044853184105950
    -9.9328508697157396   17.0455880870134706   -0.0009011933256551
     0.0066994348285464    0.0023372118419351   29.7206149732621618
   Pt   C    N 
     1   124     2
Direct
  0.4374688050315979  0.4999957003897187  0.4107916294823736
  0.0418623225802149  0.0840960296156786  0.3996362715374576
  0.0403492517549023  0.2078286387280462  0.3993809039466877
  0.0394656444322096  0.3324281283358184  0.3990349749049493
  0.0396648132089767  0.4582071994836648  0.3989667443983013
  0.0410790818979749  0.5839442754076354  0.3993953420648754
  0.0422695980430468  0.7095426667682970  0.3997113767793258
  0.0427898778258512  0.8349910597410263  0.3998017287740794
  0.0428736236836810  0.9600518199093974  0.3997559833857772
  0.1683214650149478  0.0862990474239204  0.4001782501039330
  0.1667504431597343  0.2099036895863869  0.4006961198540993
  0.1640678426885715  0.3333359074786794  0.4007052377833620
  0.1623107552510986  0.4582165067767818  0.3996507581307973
  0.1642396029847904  0.5838247907826729  0.3991130900734508
  0.1661463788044908  0.7094898151605645  0.3994393328078653
  0.1671823019100132  0.8350244560397934  0.3998234018213276
  0.1678736205267923  0.9606463006653672  0.3999119419238181
  0.2930933449783315  0.0861410973711771  0.4002519468323100
  0.2948394922532775  0.2136936980194229  0.4022757382150148
  0.2909839507147116  0.3371507967844999  0.4050288352509798
  0.2843241372848074  0.4580934688779902  0.4050843797050645
  0.2869905980120432  0.5843715796567356  0.4017234702370172
  0.2900311904809513  0.7092375210945689  0.3998484503428801
  0.2914811365569932  0.8344328211952453  0.3995885353288234
  0.2922210271403706  0.9600057791191624  0.3997629209644073
  0.4173226359093146  0.0841470089379237  0.3997450352490090
  0.4181837177684919  0.2101179390532525  0.4011899716891453
  0.4222754267444791  0.3385739467280641  0.4054007539184057
  0.4139394992576368  0.7062443641012272  0.4025644339574310
  0.4157382222640600  0.8324752834556637  0.4000318969091421
  0.4165402965129185  0.9582803508775024  0.3996010194426833
  0.5415297092512392  0.0821578684670779  0.3996206831549760
  0.5424421913512064  0.2076170869163121  0.3997382232725141
  0.5442110349349144  0.3327882287742809  0.4013488735233982
  0.5478939089596759  0.4567307284789993  0.4051671055162170
  0.5481430612621112  0.5805235612829420  0.4078566866750002
  0.5383286858286094  0.7021675522297556  0.4046823924898809
  0.5397924327646200  0.8300163964382351  0.4011484228267536
  0.5408919390095208  0.9563722054088762  0.3998381104548469
  0.6658536055450953  0.0813320753729201  0.3998397984404292
  0.6666856409074976  0.2069270093601213  0.3996007431841486
  0.6679561965459947  0.3323947150367528  0.3993319305658616
  0.6706467688391989  0.4581685146345101  0.3998533006067536
  0.6719791776743824  0.5834067802468084  0.4014624584417738
  0.6674394368630439  0.7066400722206200  0.4019835148509501
  0.6647965406952919  0.8297877274331424  0.4010421453770607
  0.6653188522971737  0.9556981639665282  0.4000817101657930
  0.7904864862330263  0.0813408839915130  0.3998531405124533
  0.7908376763029162  0.2066744675404559  0.3998217632615254
  0.7918465188907549  0.3323522702476021  0.3995231935078119
  0.7934017223769206  0.4581464274354236  0.3990273296287724
  0.7947101526687171  0.5837691788357448  0.3989109747163707
  0.7937005669789379  0.7087910211319789  0.3994235491410290
  0.7918773974882413  0.8326258833459115  0.3997581589813410
  0.7903864410691326  0.9563101245498369  0.3998272525724773
  0.9157340331579551  0.0822477038287804  0.3996044631032982
  0.9152674011024963  0.2069579547661942  0.3995220665482181
  0.9155632969642944  0.3323545798956867  0.3994797682148968
  0.9164922651212736  0.4580512827861878  0.3994831987194235
  0.9178996135898774  0.5839298447961263  0.3993453776902514
  0.9182587975148248  0.7094810486863136  0.3992895754126460
  0.9178204312205003  0.8342510777687084  0.3994469623822394
  0.9167787117580553  0.9582863555022130  0.3995973139290983
  0.0846388034885927  0.0437065231671148  0.3998084164730865
  0.0831343744733141  0.1673800232410010  0.3997072661215970
  0.0812613378818275  0.2911883444278733  0.3993929179643740
  0.0802703910827188  0.4162338491625886  0.3988880715477155
  0.0815681524048427  0.5418521452523311  0.3990335805131037
  0.0831569456242137  0.6676388684907791  0.3995438375127439
  0.0841615098747487  0.7933277292618433  0.3998394078458861
  0.0845495284884250  0.9186655257798313  0.3998559095555045
  0.2097093059534060  0.0443072897542614  0.4000897085197236
  0.2102237919178616  0.1702316420802365  0.4010059274042667
  0.2075447455862063  0.2933551965393937  0.4019553279377542
  0.2029874886259765  0.4165717270777722  0.4014220220957789
  0.2043376702414192  0.5418289754871919  0.3998332350374698
  0.2070347339661588  0.6676103889380588  0.3993330844063949
  0.2083172942572613  0.7930770163718300  0.3996278508805031
  0.2091791295976638  0.9186624769546841  0.3998605435812225
  0.3341230112085787  0.0436208404339479  0.3998565753753582
  0.3352169373663068  0.1699831572202799  0.4012211494127858
  0.3366670658937721  0.2978302738813343  0.4047197491909223
  0.3268091689267855  0.4194510687622918  0.4078507278244778
  0.3270647519223818  0.5432435446278924  0.4051299829466111
  0.3307803735119924  0.6672108652965739  0.4013025993124283
  0.3325634274857783  0.7923994008684535  0.3997416216685674
  0.3335190083665138  0.9178488672550681  0.3996425727178654
  0.4585088592649789  0.0417282081927238  0.3995986163747352
  0.4592810314411738  0.1675313473170947  0.4000593638874819
  0.4610531432973760  0.2937551375151534  0.4026253357455180
  0.4527075954142867  0.6614214175788453  0.4053500126837674
  0.4568210203392403  0.7898843336906046  0.4011120843203850
  0.4577111902766507  0.9158550507708807  0.3997291818453452
  0.5828192255637210  0.0399943680665427  0.3997382754353422
  0.5835355787276946  0.1655824911804407  0.3995625709029040
  0.5849687913634883  0.2907814647156709  0.3998619984111306
  0.5879883102598948  0.4156262671240994  0.4017567221950565
  0.5906282819388536  0.5418740387677603  0.4051189680039932
  0.5839913921493917  0.6628393471211208  0.4050186548830062
  0.5801730066320625  0.7863085987425967  0.4022443209297177
  0.5819230350041997  0.9138562442997877  0.4002180326902467
  0.7071610995194555  0.0393535740228499  0.3999021014754620
  0.7078129140494629  0.1649680765519224  0.3998003877611949
  0.7088604182146189  0.2905145942009678  0.3994227606385270
  0.7107310054031094  0.4161737985540472  0.3991129398755996
  0.7126782893014033  0.5417852294875837  0.3996844260918125
  0.7108916459399270  0.6666451940291340  0.4007422072105180
  0.7082506777639676  0.7900937413869863  0.4007539853604566
  0.7067045211448811  0.9137239910761192  0.4001970971906426
  0.8321712929605455  0.0399571183279014  0.3997640504866178
  0.8322112967856570  0.1650171658938329  0.3997923518265008
  0.8327494653922898  0.2904580353362990  0.3996964739630240
  0.8338846096992591  0.4160492098129857  0.3993797025323620
  0.8353060200403110  0.5417983556751245  0.3989725819852108
  0.8355093305321702  0.6675699683645705  0.3990407339312148
  0.8346371140844627  0.7921647440221257  0.3994192650513343
  0.8331726802797804  0.9159150967931881  0.3996635110944522
  0.9582669394620801  0.0417175869160585  0.3995905744034036
  0.9571777525364625  0.1657427644754084  0.3994280061489879
  0.9567287891977850  0.2905144875108786  0.3992892839579836
  0.9570732465604034  0.4160812698180263  0.3993486148106563
  0.9584797469676618  0.5419527097797197  0.3994859114486621
  0.9594475269333458  0.6676623736917280  0.3994816812672968
  0.9597282246085979  0.7930451494387775  0.3995290205283162
  0.9593095163697496  0.9177563461811755  0.3996099343939769
  0.4061665557751066  0.5808387353601003  0.4077986458171078
  0.4687971108129686  0.4191511489340138  0.4078388629109205
 
  0.00000000E+00  0.00000000E+00  0.00000000E+00
  0.00000000E+00  0.00000000E+00  0.00000000E+00
  0.00000000E+00  0.00000000E+00  0.00000000E+00
  0.00000000E+00  0.00000000E+00  0.00000000E+00
  0.00000000E+00  0.00000000E+00  0.00000000E+00
  0.00000000E+00  0.00000000E+00  0.00000000E+00
  0.00000000E+00  0.00000000E+00  0.00000000E+00
  0.00000000E+00  0.00000000E+00  0.00000000E+00
  0.00000000E+00  0.00000000E+00  0.00000000E+00
  0.00000000E+00  0.00000000E+00  0.00000000E+00
  0.00000000E+00  0.00000000E+00  0.00000000E+00
  0.00000000E+00  0.00000000E+00  0.00000000E+00
  0.00000000E+00  0.00000000E+00  0.00000000E+00
  0.00000000E+00  0.00000000E+00  0.00000000E+00
  0.00000000E+00  0.00000000E+00  0.00000000E+00
  0.00000000E+00  0.00000000E+00  0.00000000E+00
  0.00000000E+00  0.00000000E+00  0.00000000E+00
  0.00000000E+00  0.00000000E+00  0.00000000E+00
  0.00000000E+00  0.00000000E+00  0.00000000E+00
  0.00000000E+00  0.00000000E+00  0.00000000E+00
  0.00000000E+00  0.00000000E+00  0.00000000E+00
  0.00000000E+00  0.00000000E+00  0.00000000E+00
  0.00000000E+00  0.00000000E+00  0.00000000E+00
  0.00000000E+00  0.00000000E+00  0.00000000E+00
  0.00000000E+00  0.00000000E+00  0.00000000E+00
  0.00000000E+00  0.00000000E+00  0.00000000E+00
  0.00000000E+00  0.00000000E+00  0.00000000E+00
  0.00000000E+00  0.00000000E+00  0.00000000E+00
  0.00000000E+00  0.00000000E+00  0.00000000E+00
  0.00000000E+00  0.00000000E+00  0.00000000E+00
  0.00000000E+00  0.00000000E+00  0.00000000E+00
  0.00000000E+00  0.00000000E+00  0.00000000E+00
  0.00000000E+00  0.00000000E+00  0.00000000E+00
  0.00000000E+00  0.00000000E+00  0.00000000E+00
  0.00000000E+00  0.00000000E+00  0.00000000E+00
  0.00000000E+00  0.00000000E+00  0.00000000E+00
  0.00000000E+00  0.00000000E+00  0.00000000E+00
  0.00000000E+00  0.00000000E+00  0.00000000E+00
  0.00000000E+00  0.00000000E+00  0.00000000E+00
  0.00000000E+00  0.00000000E+00  0.00000000E+00
  0.00000000E+00  0.00000000E+00  0.00000000E+00
  0.00000000E+00  0.00000000E+00  0.00000000E+00
  0.00000000E+00  0.00000000E+00  0.00000000E+00
  0.00000000E+00  0.00000000E+00  0.00000000E+00
  0.00000000E+00  0.00000000E+00  0.00000000E+00
  0.00000000E+00  0.00000000E+00  0.00000000E+00
  0.00000000E+00  0.00000000E+00  0.00000000E+00
  0.00000000E+00  0.00000000E+00  0.00000000E+00
  0.00000000E+00  0.00000000E+00  0.00000000E+00
  0.00000000E+00  0.00000000E+00  0.00000000E+00
  0.00000000E+00  0.00000000E+00  0.00000000E+00
  0.00000000E+00  0.00000000E+00  0.00000000E+00
  0.00000000E+00  0.00000000E+00  0.00000000E+00
  0.00000000E+00  0.00000000E+00  0.00000000E+00
  0.00000000E+00  0.00000000E+00  0.00000000E+00
  0.00000000E+00  0.00000000E+00  0.00000000E+00
  0.00000000E+00  0.00000000E+00  0.00000000E+00
  0.00000000E+00  0.00000000E+00  0.00000000E+00
  0.00000000E+00  0.00000000E+00  0.00000000E+00
  0.00000000E+00  0.00000000E+00  0.00000000E+00
  0.00000000E+00  0.00000000E+00  0.00000000E+00
  0.00000000E+00  0.00000000E+00  0.00000000E+00
  0.00000000E+00  0.00000000E+00  0.00000000E+00
  0.00000000E+00  0.00000000E+00  0.00000000E+00
  0.00000000E+00  0.00000000E+00  0.00000000E+00
  0.00000000E+00  0.00000000E+00  0.00000000E+00
  0.00000000E+00  0.00000000E+00  0.00000000E+00
  0.00000000E+00  0.00000000E+00  0.00000000E+00
  0.00000000E+00  0.00000000E+00  0.00000000E+00
  0.00000000E+00  0.00000000E+00  0.00000000E+00
  0.00000000E+00  0.00000000E+00  0.00000000E+00
  0.00000000E+00  0.00000000E+00  0.00000000E+00
  0.00000000E+00  0.00000000E+00  0.00000000E+00
  0.00000000E+00  0.00000000E+00  0.00000000E+00
  0.00000000E+00  0.00000000E+00  0.00000000E+00
  0.00000000E+00  0.00000000E+00  0.00000000E+00
  0.00000000E+00  0.00000000E+00  0.00000000E+00
  0.00000000E+00  0.00000000E+00  0.00000000E+00
  0.00000000E+00  0.00000000E+00  0.00000000E+00
  0.00000000E+00  0.00000000E+00  0.00000000E+00
  0.00000000E+00  0.00000000E+00  0.00000000E+00
  0.00000000E+00  0.00000000E+00  0.00000000E+00
  0.00000000E+00  0.00000000E+00  0.00000000E+00
  0.00000000E+00  0.00000000E+00  0.00000000E+00
  0.00000000E+00  0.00000000E+00  0.00000000E+00
  0.00000000E+00  0.00000000E+00  0.00000000E+00
  0.00000000E+00  0.00000000E+00  0.00000000E+00
  0.00000000E+00  0.00000000E+00  0.00000000E+00
  0.00000000E+00  0.00000000E+00  0.00000000E+00
  0.00000000E+00  0.00000000E+00  0.00000000E+00
  0.00000000E+00  0.00000000E+00  0.00000000E+00
  0.00000000E+00  0.00000000E+00  0.00000000E+00
  0.00000000E+00  0.00000000E+00  0.00000000E+00
  0.00000000E+00  0.00000000E+00  0.00000000E+00
  0.00000000E+00  0.00000000E+00  0.00000000E+00
  0.00000000E+00  0.00000000E+00  0.00000000E+00
  0.00000000E+00  0.00000000E+00  0.00000000E+00
  0.00000000E+00  0.00000000E+00  0.00000000E+00
  0.00000000E+00  0.00000000E+00  0.00000000E+00
  0.00000000E+00  0.00000000E+00  0.00000000E+00
  0.00000000E+00  0.00000000E+00  0.00000000E+00
  0.00000000E+00  0.00000000E+00  0.00000000E+00
  0.00000000E+00  0.00000000E+00  0.00000000E+00
  0.00000000E+00  0.00000000E+00  0.00000000E+00
  0.00000000E+00  0.00000000E+00  0.00000000E+00
  0.00000000E+00  0.00000000E+00  0.00000000E+00
  0.00000000E+00  0.00000000E+00  0.00000000E+00
  0.00000000E+00  0.00000000E+00  0.00000000E+00
  0.00000000E+00  0.00000000E+00  0.00000000E+00
  0.00000000E+00  0.00000000E+00  0.00000000E+00
  0.00000000E+00  0.00000000E+00  0.00000000E+00
  0.00000000E+00  0.00000000E+00  0.00000000E+00
  0.00000000E+00  0.00000000E+00  0.00000000E+00
  0.00000000E+00  0.00000000E+00  0.00000000E+00
  0.00000000E+00  0.00000000E+00  0.00000000E+00
  0.00000000E+00  0.00000000E+00  0.00000000E+00
  0.00000000E+00  0.00000000E+00  0.00000000E+00
  0.00000000E+00  0.00000000E+00  0.00000000E+00
  0.00000000E+00  0.00000000E+00  0.00000000E+00
  0.00000000E+00  0.00000000E+00  0.00000000E+00
  0.00000000E+00  0.00000000E+00  0.00000000E+00
  0.00000000E+00  0.00000000E+00  0.00000000E+00
  0.00000000E+00  0.00000000E+00  0.00000000E+00
  0.00000000E+00  0.00000000E+00  0.00000000E+00
  0.00000000E+00  0.00000000E+00  0.00000000E+00
  0.00000000E+00  0.00000000E+00  0.00000000E+00
  0.00000000E+00  0.00000000E+00  0.00000000E+00
