H1 Os1 C124 N2 O1                       
   1.00000000000000     
    19.8021631453818578   -0.0342004966834335   -0.6014629707875303
    -9.9317237981278641   17.0420714877161537    0.4057482157164975
    -0.9041467424938003    0.1819337816926816   29.8758189633914171
   H    Os   C    N    O 
     1     1   124     2     1
Direct
  0.4329844058733610  0.5574529799011623  0.5028426945955209
  0.4411554813440398  0.4990055825630785  0.4305871888426412
  0.0429788012493822  0.0845610330246174  0.3996202732926915
  0.0425127435145538  0.2088895789360914  0.3991976205942371
  0.0415983709353056  0.3333054161506130  0.3987775145795054
  0.0410006109493303  0.4584256593738745  0.3986610908902010
  0.0413612061975475  0.5838085488686882  0.3985736815295729
  0.0418976559067786  0.7091781598439579  0.3988363148503706
  0.0422087327972332  0.8343520502743542  0.3991407732908835
  0.0426329423644822  0.9596165611894525  0.3994993062138701
  0.1688293781870722  0.0860157945862809  0.4003015539268623
  0.1694583464999264  0.2115098555817565  0.4003390127023729
  0.1675432914721701  0.3350350109193789  0.3992859210010157
  0.1650258800485009  0.4591380295533402  0.3992845789605785
  0.1652410378560267  0.5841101326458563  0.3993233926944122
  0.1662231421457377  0.7092466137723807  0.3993190714933794
  0.1669570609407876  0.8345206116783025  0.3994637544992253
  0.1676899602056046  0.9600189424655579  0.3998868971288217
  0.2931814667631509  0.0854376598593732  0.4005197443504253
  0.2954617195795328  0.2128168342204217  0.4018925345761847
  0.2966522278215565  0.3399021836127987  0.4025637114205078
  0.2896408115250899  0.4611169341500712  0.4020973281694133
  0.2888826890841251  0.5847953745553180  0.4022529446595853
  0.2905792004362954  0.7092403388335540  0.4010544180150344
  0.2916134500109095  0.8342279120381286  0.3998485025148870
  0.2923036611448555  0.9595662881177297  0.3998336704801649
  0.4175770099681050  0.0838080717562752  0.3999421700746171
  0.4185488173199381  0.2097285344638357  0.4007918452687986
  0.4225004648479535  0.3374516133681674  0.4051770278988987
  0.4147904824787071  0.7065267094116983  0.4041174163219515
  0.4162179829763286  0.8325542247249575  0.4010579355143420
  0.4169177095279376  0.9582031286420710  0.3999333419658305
  0.5421110552285435  0.0821807065173434  0.3998246179292464
  0.5427875161675417  0.2073884324600191  0.3997953661246828
  0.5443385053062239  0.3321808139897873  0.4004423354854755
  0.5468155189560897  0.4557383137684284  0.4018684102795863
  0.5413492922955389  0.5752265240396908  0.4023379184954344
  0.5379477652859636  0.7019365839209782  0.4049138212330602
  0.5405672540294743  0.8303115091877142  0.4022994516780124
  0.5415141049204809  0.9565792526415199  0.4004993360329677
  0.6667510086609056  0.0816238547981372  0.3998692495375668
  0.6673597627486899  0.2070069584741452  0.3994039777112366
  0.6683097204424696  0.3322900885590607  0.3986584582709343
  0.6696238046201839  0.4575572122597882  0.3972842347427103
  0.6687590489822761  0.5816270035297427  0.3968181991184070
  0.6640510352777905  0.7040614199064941  0.3992423377283892
  0.6644874427684885  0.8295296175515394  0.4008016446053222
  0.6659934184764484  0.9559474678557487  0.4004191111425462
  0.7915176840483922  0.0817506286173788  0.3994769064326529
  0.7919353213966616  0.2070259552871213  0.3992293255717968
  0.7924909207365557  0.3324127963704215  0.3985918226559004
  0.7931633690485341  0.4578294292163094  0.3975876344610121
  0.7933110675122711  0.5831064718015986  0.3969523240072972
  0.7916295076833474  0.7075369164997810  0.3974166401854177
  0.7903851533094486  0.8313383662654750  0.3989600074194001
  0.7907380515509408  0.9562692663801518  0.3995026516753071
  0.9168022959214331  0.0826768122152323  0.3992714909414240
  0.9168013042426213  0.2075193289245168  0.3990190966410435
  0.9168330561398446  0.3326763160958464  0.3987720605555309
  0.9170638859065271  0.4581068575509918  0.3982757566182606
  0.9174282023698447  0.5835590198545794  0.3979959529641695
  0.9171396014569166  0.7087076184954630  0.3980977563162353
  0.9168607065231488  0.8334771774068715  0.3986226507364458
  0.9166863343192047  0.9580133601054279  0.3991920190660472
  0.0849993922622631  0.0435040044249625  0.3998114998797016
  0.0853089254660385  0.1684707146278877  0.3996768499236028
  0.0839625028432346  0.2923889009309418  0.3989230049151656
  0.0822750261353036  0.4167970784024776  0.3987833676939891
  0.0823521970209762  0.5420050786583600  0.3987309983240352
  0.0830646772540268  0.6673969985286725  0.3988643914377674
  0.0836833564765890  0.7927479372356390  0.3991790335368740
  0.0841986956378812  0.9180185041066868  0.3995400834676119
  0.2098247411740837  0.0437652545043815  0.4003026070999969
  0.2114189299394735  0.1701538820807554  0.4008475423026534
  0.2117119533439021  0.2956612217730344  0.4004318829829773
  0.2070331243761472  0.4183423953457467  0.3996545399621473
  0.2060246153815965  0.5423518731453639  0.3998359516724088
  0.2073338549784667  0.6675390335398919  0.3998373579132279
  0.2082817753237957  0.7927762122872735  0.3995234072577448
  0.2089855625184397  0.9181142193173876  0.3997626647803688
  0.3342899082153436  0.0431149986999585  0.4000762368621442
  0.3354178826653303  0.1692904177722542  0.4011886201809876
  0.3385564407614430  0.2975327218528423  0.4038231754328450
  0.3354042854684313  0.4241964150175517  0.4041621667118085
  0.3297820455271692  0.5440225391978423  0.4054488419702083
  0.3316164071720044  0.6675337032767527  0.4028748251886397
  0.3329547703130137  0.7923857743580827  0.4006339281379496
  0.3336558339314092  0.9175974021645966  0.3997980183665170
  0.4588465732001777  0.0415971644384162  0.3998275519340241
  0.4595967457094979  0.1672318306334363  0.4000821687312274
  0.4613251222540737  0.2932373609922029  0.4017536296809537
  0.4541470226372717  0.6620754888087603  0.4076399185094813
  0.4574385220312427  0.7900559330404239  0.4023668187166347
  0.4582098889390791  0.9159565694662246  0.4004266798808774
  0.5834455020797267  0.0401715106825754  0.4000340170876952
  0.5840647760865681  0.1655362378329729  0.3996434180671742
  0.5851225359882756  0.2905544190179006  0.3995579241568756
  0.5869520014061689  0.4150684929708476  0.3992312523066552
  0.5866333524148329  0.5387428024424775  0.3989010964287404
  0.5793940728621571  0.6594780181740639  0.4018238106166673
  0.5806460319678670  0.7866801204916681  0.4027475383622344
  0.5826824685040340  0.9141992757215655  0.4010567344328545
  0.7080444755555987  0.0397062461673440  0.3998857599172794
  0.7086916180352454  0.1652463913787366  0.3995201988815887
  0.7093692159420014  0.2905774405348685  0.3988625550882910
  0.7103261633839154  0.4157489105017273  0.3976509926611606
  0.7106411349443224  0.5407772853908261  0.3966977985580316
  0.7080653251241599  0.6648868291860814  0.3973127619144130
  0.7063101202534908  0.7882023517867344  0.3996845283626239
  0.7069758743307951  0.9137019133705349  0.4001590375026899
  0.8330853224694856  0.0401942833311427  0.3993832353988601
  0.8334519993024774  0.1654545213416430  0.3992357115658375
  0.8337180294234445  0.2906304321438831  0.3988783084413607
  0.8341770050510549  0.4160052537458251  0.3981379655557015
  0.8345631132518433  0.5414615184190629  0.3974251932168653
  0.8339827045120860  0.6666031726991302  0.3973228886928295
  0.8331399813734200  0.7909727192024728  0.3982738997961482
  0.8327364187972197  0.9152365899528274  0.3992150050814977
  0.9590159647082522  0.0418145535932285  0.3993447046348855
  0.9587991671857115  0.1663988190053430  0.3991250368312084
  0.9584421255307848  0.2911431870743406  0.3988508827208070
  0.9581586919611103  0.4163028233286904  0.3985754405846831
  0.9584846746213912  0.5417041149235564  0.3982347627164825
  0.9587424364098716  0.6671642983596561  0.3983387636522101
  0.9587949978945913  0.7923040981360127  0.3986026264273543
  0.9588840273677389  0.9171545976150172  0.3991218008436030
  0.4096443238664144  0.5812128749414226  0.4126917661277580
  0.4678205525710141  0.4186215749301161  0.4098695844774204
  0.4452655575601088  0.5182842433464671  0.4932154367546204
 
  0.00000000E+00  0.00000000E+00  0.00000000E+00
  0.00000000E+00  0.00000000E+00  0.00000000E+00
  0.00000000E+00  0.00000000E+00  0.00000000E+00
  0.00000000E+00  0.00000000E+00  0.00000000E+00
  0.00000000E+00  0.00000000E+00  0.00000000E+00
  0.00000000E+00  0.00000000E+00  0.00000000E+00
  0.00000000E+00  0.00000000E+00  0.00000000E+00
  0.00000000E+00  0.00000000E+00  0.00000000E+00
  0.00000000E+00  0.00000000E+00  0.00000000E+00
  0.00000000E+00  0.00000000E+00  0.00000000E+00
  0.00000000E+00  0.00000000E+00  0.00000000E+00
  0.00000000E+00  0.00000000E+00  0.00000000E+00
  0.00000000E+00  0.00000000E+00  0.00000000E+00
  0.00000000E+00  0.00000000E+00  0.00000000E+00
  0.00000000E+00  0.00000000E+00  0.00000000E+00
  0.00000000E+00  0.00000000E+00  0.00000000E+00
  0.00000000E+00  0.00000000E+00  0.00000000E+00
  0.00000000E+00  0.00000000E+00  0.00000000E+00
  0.00000000E+00  0.00000000E+00  0.00000000E+00
  0.00000000E+00  0.00000000E+00  0.00000000E+00
  0.00000000E+00  0.00000000E+00  0.00000000E+00
  0.00000000E+00  0.00000000E+00  0.00000000E+00
  0.00000000E+00  0.00000000E+00  0.00000000E+00
  0.00000000E+00  0.00000000E+00  0.00000000E+00
  0.00000000E+00  0.00000000E+00  0.00000000E+00
  0.00000000E+00  0.00000000E+00  0.00000000E+00
  0.00000000E+00  0.00000000E+00  0.00000000E+00
  0.00000000E+00  0.00000000E+00  0.00000000E+00
  0.00000000E+00  0.00000000E+00  0.00000000E+00
  0.00000000E+00  0.00000000E+00  0.00000000E+00
  0.00000000E+00  0.00000000E+00  0.00000000E+00
  0.00000000E+00  0.00000000E+00  0.00000000E+00
  0.00000000E+00  0.00000000E+00  0.00000000E+00
  0.00000000E+00  0.00000000E+00  0.00000000E+00
  0.00000000E+00  0.00000000E+00  0.00000000E+00
  0.00000000E+00  0.00000000E+00  0.00000000E+00
  0.00000000E+00  0.00000000E+00  0.00000000E+00
  0.00000000E+00  0.00000000E+00  0.00000000E+00
  0.00000000E+00  0.00000000E+00  0.00000000E+00
  0.00000000E+00  0.00000000E+00  0.00000000E+00
  0.00000000E+00  0.00000000E+00  0.00000000E+00
  0.00000000E+00  0.00000000E+00  0.00000000E+00
  0.00000000E+00  0.00000000E+00  0.00000000E+00
  0.00000000E+00  0.00000000E+00  0.00000000E+00
  0.00000000E+00  0.00000000E+00  0.00000000E+00
  0.00000000E+00  0.00000000E+00  0.00000000E+00
  0.00000000E+00  0.00000000E+00  0.00000000E+00
  0.00000000E+00  0.00000000E+00  0.00000000E+00
  0.00000000E+00  0.00000000E+00  0.00000000E+00
  0.00000000E+00  0.00000000E+00  0.00000000E+00
  0.00000000E+00  0.00000000E+00  0.00000000E+00
  0.00000000E+00  0.00000000E+00  0.00000000E+00
  0.00000000E+00  0.00000000E+00  0.00000000E+00
  0.00000000E+00  0.00000000E+00  0.00000000E+00
  0.00000000E+00  0.00000000E+00  0.00000000E+00
  0.00000000E+00  0.00000000E+00  0.00000000E+00
  0.00000000E+00  0.00000000E+00  0.00000000E+00
  0.00000000E+00  0.00000000E+00  0.00000000E+00
  0.00000000E+00  0.00000000E+00  0.00000000E+00
  0.00000000E+00  0.00000000E+00  0.00000000E+00
  0.00000000E+00  0.00000000E+00  0.00000000E+00
  0.00000000E+00  0.00000000E+00  0.00000000E+00
  0.00000000E+00  0.00000000E+00  0.00000000E+00
  0.00000000E+00  0.00000000E+00  0.00000000E+00
  0.00000000E+00  0.00000000E+00  0.00000000E+00
  0.00000000E+00  0.00000000E+00  0.00000000E+00
  0.00000000E+00  0.00000000E+00  0.00000000E+00
  0.00000000E+00  0.00000000E+00  0.00000000E+00
  0.00000000E+00  0.00000000E+00  0.00000000E+00
  0.00000000E+00  0.00000000E+00  0.00000000E+00
  0.00000000E+00  0.00000000E+00  0.00000000E+00
  0.00000000E+00  0.00000000E+00  0.00000000E+00
  0.00000000E+00  0.00000000E+00  0.00000000E+00
  0.00000000E+00  0.00000000E+00  0.00000000E+00
  0.00000000E+00  0.00000000E+00  0.00000000E+00
  0.00000000E+00  0.00000000E+00  0.00000000E+00
  0.00000000E+00  0.00000000E+00  0.00000000E+00
  0.00000000E+00  0.00000000E+00  0.00000000E+00
  0.00000000E+00  0.00000000E+00  0.00000000E+00
  0.00000000E+00  0.00000000E+00  0.00000000E+00
  0.00000000E+00  0.00000000E+00  0.00000000E+00
  0.00000000E+00  0.00000000E+00  0.00000000E+00
  0.00000000E+00  0.00000000E+00  0.00000000E+00
  0.00000000E+00  0.00000000E+00  0.00000000E+00
  0.00000000E+00  0.00000000E+00  0.00000000E+00
  0.00000000E+00  0.00000000E+00  0.00000000E+00
  0.00000000E+00  0.00000000E+00  0.00000000E+00
  0.00000000E+00  0.00000000E+00  0.00000000E+00
  0.00000000E+00  0.00000000E+00  0.00000000E+00
  0.00000000E+00  0.00000000E+00  0.00000000E+00
  0.00000000E+00  0.00000000E+00  0.00000000E+00
  0.00000000E+00  0.00000000E+00  0.00000000E+00
  0.00000000E+00  0.00000000E+00  0.00000000E+00
  0.00000000E+00  0.00000000E+00  0.00000000E+00
  0.00000000E+00  0.00000000E+00  0.00000000E+00
  0.00000000E+00  0.00000000E+00  0.00000000E+00
  0.00000000E+00  0.00000000E+00  0.00000000E+00
  0.00000000E+00  0.00000000E+00  0.00000000E+00
  0.00000000E+00  0.00000000E+00  0.00000000E+00
  0.00000000E+00  0.00000000E+00  0.00000000E+00
  0.00000000E+00  0.00000000E+00  0.00000000E+00
  0.00000000E+00  0.00000000E+00  0.00000000E+00
  0.00000000E+00  0.00000000E+00  0.00000000E+00
  0.00000000E+00  0.00000000E+00  0.00000000E+00
  0.00000000E+00  0.00000000E+00  0.00000000E+00
  0.00000000E+00  0.00000000E+00  0.00000000E+00
  0.00000000E+00  0.00000000E+00  0.00000000E+00
  0.00000000E+00  0.00000000E+00  0.00000000E+00
  0.00000000E+00  0.00000000E+00  0.00000000E+00
  0.00000000E+00  0.00000000E+00  0.00000000E+00
  0.00000000E+00  0.00000000E+00  0.00000000E+00
  0.00000000E+00  0.00000000E+00  0.00000000E+00
  0.00000000E+00  0.00000000E+00  0.00000000E+00
  0.00000000E+00  0.00000000E+00  0.00000000E+00
  0.00000000E+00  0.00000000E+00  0.00000000E+00
  0.00000000E+00  0.00000000E+00  0.00000000E+00
  0.00000000E+00  0.00000000E+00  0.00000000E+00
  0.00000000E+00  0.00000000E+00  0.00000000E+00
  0.00000000E+00  0.00000000E+00  0.00000000E+00
  0.00000000E+00  0.00000000E+00  0.00000000E+00
  0.00000000E+00  0.00000000E+00  0.00000000E+00
  0.00000000E+00  0.00000000E+00  0.00000000E+00
  0.00000000E+00  0.00000000E+00  0.00000000E+00
  0.00000000E+00  0.00000000E+00  0.00000000E+00
  0.00000000E+00  0.00000000E+00  0.00000000E+00
  0.00000000E+00  0.00000000E+00  0.00000000E+00
  0.00000000E+00  0.00000000E+00  0.00000000E+00
  0.00000000E+00  0.00000000E+00  0.00000000E+00
  0.00000000E+00  0.00000000E+00  0.00000000E+00
