V1 H1 C123 N3 O1                        
   1.00000000000000     
    19.7927409050599010    0.0119684395951744    0.0475981963618541
    -9.8879282324432189   17.0159073220227519   -0.3363659875508612
     0.0721051920999574   -0.5475473274887811   29.8770130821423159
   V    H    C    N    O 
     1     1   123     3     1
Direct
  0.4373820000720056  0.5032549431681584  0.4311851135611213
  0.4564658406531404  0.4922995049158053  0.5163562173386094
  0.0422582528809811  0.0845298535972268  0.4000120576227728
  0.0414572832628552  0.2086815698907433  0.3996729237247467
  0.0408547639852036  0.3333342312062385  0.3985525159912624
  0.0409903002755987  0.4584026916309639  0.3973919502991256
  0.0416871650852867  0.5838033308792480  0.3971397620855103
  0.0423775277041901  0.7092616167089176  0.3977034631691828
  0.0426225245234457  0.8345964020460104  0.3988216306026335
  0.0425806997163681  0.9597940055056707  0.3997177644655922
  0.1680104080757814  0.0857999548915888  0.4006864953786155
  0.1678531143814979  0.2108503474403255  0.4012659747754765
  0.1657359293331137  0.3342056273839320  0.4007189715786345
  0.1650662257469729  0.4587162696396136  0.3985931622433861
  0.1657798734221425  0.5837501685176713  0.3975889889648548
  0.1667826722464430  0.7090167561421822  0.3978628940300228
  0.1673341508583439  0.8345394115093833  0.3987051597469118
  0.1676821241049374  0.9602008149353682  0.3996772571893179
  0.2927780602981316  0.0861163142562718  0.4006100047231987
  0.2934947829446057  0.2131413762317987  0.4028589741798501
  0.2931784255913837  0.3393027875803878  0.4048729810642256
  0.2888775927939750  0.4585512860348409  0.4023992467139229
  0.2894385904327625  0.5831168082278070  0.3992169202052545
  0.2912316838672306  0.7084226577464531  0.3986512749472918
  0.2920062653521476  0.8340329161095823  0.3988958985253869
  0.2923841608630548  0.9598160815592403  0.3994704269323108
  0.4172142317917606  0.0846614006913999  0.3997396879724466
  0.4178548898945945  0.2112127372825572  0.4012698710105277
  0.4197972804520704  0.3397014389628746  0.4053467561095434
  0.4154102886060304  0.7059346843900856  0.4007027767085476
  0.4165421952932349  0.8324206674063723  0.3997748782196126
  0.4169627976252375  0.9585823571048132  0.3994107924561955
  0.5417150436833318  0.0831178358971492  0.3991126384887177
  0.5421736307949343  0.2089936886692715  0.3993664811071406
  0.5431678782227274  0.3348545383252583  0.4009869010672134
  0.5461445680724180  0.4604741766868783  0.4042558231367362
  0.5388714953953468  0.7022714092114113  0.4039987166637263
  0.5409266220668721  0.8306478028273049  0.4012703290006985
  0.5414273085240727  0.9571516673443409  0.3998134228865040
  0.6663508953873855  0.0824938259904950  0.3990429312799968
  0.6666524384434255  0.2079600759289617  0.3983794910167525
  0.6674046867025061  0.3334445087998594  0.3983816082984510
  0.6692572770934346  0.4590714179783430  0.3994779305889157
  0.6702390934343636  0.5844546333305196  0.4013728433178831
  0.6665720192302300  0.7066325043977406  0.4024657564147966
  0.6650793388248364  0.8308291064247006  0.4018590520323519
  0.6659287090833931  0.9568176904378821  0.4003609416813814
  0.7911086871124425  0.0824777459544221  0.3992769891169452
  0.7913457891387834  0.2077538004401462  0.3983451594017999
  0.7918048417215835  0.3330757449746844  0.3975762350694542
  0.7928126387324252  0.4585308607444265  0.3974679398919473
  0.7936634590762000  0.5840316799204935  0.3984013309871705
  0.7932958923691910  0.7091457498659158  0.3999158945848406
  0.7913928183399425  0.8327761556117740  0.4006046724857670
  0.7908419906773654  0.9572305201871069  0.4002591276857421
  0.9163123808891864  0.0830605239444852  0.3995309789237926
  0.9161692232766534  0.2079150769646128  0.3987600364878514
  0.9162669132662760  0.3330572847491282  0.3977851587102455
  0.9168777181818918  0.4584370701996147  0.3970956973741379
  0.9176251414760707  0.5838898495699425  0.3972246703675346
  0.9178423913875394  0.7092127911684611  0.3982139871532508
  0.9175615536869641  0.8342839810341290  0.3993731560820313
  0.9168003801062340  0.9586190679727900  0.3998567947273095
  0.0844529845453618  0.0434818673887100  0.4001385507424685
  0.0841069576262402  0.1682108445331149  0.4002314174097844
  0.0828027099458665  0.2920781624824479  0.3995428056256182
  0.0821927540731017  0.4166249961724379  0.3980174345400254
  0.0828055855502652  0.5419372512230423  0.3972527002393867
  0.0836298099314087  0.6673580231647668  0.3974668071489746
  0.0841002952690751  0.7928079155101099  0.3983670241586379
  0.0843390601314331  0.9182285765711938  0.3994352495066328
  0.2094313601004612  0.0439380651544745  0.4003886846592395
  0.2099616542556112  0.1697980386135709  0.4016750399678934
  0.2093481912337672  0.2947376334716837  0.4020843390066478
  0.2065462783537232  0.4173955549053356  0.4003324903312260
  0.2065767795791675  0.5417175181034047  0.3982557828883129
  0.2079363337798642  0.6670872510216697  0.3978979856369581
  0.2087454932042386  0.7926282839359650  0.3984632428445628
  0.2091201305332313  0.9182027348233796  0.3993057943780449
  0.3340334411521765  0.0436262027897620  0.3999291249509167
  0.3344967947614501  0.1701558359578143  0.4016899429427167
  0.3355657726587543  0.2978169960287350  0.4050834774259752
  0.3305705328287943  0.5419924717333826  0.4011569881807337
  0.3321839796678492  0.6663196026068344  0.3993463857857162
  0.3333419608428341  0.7918523991859344  0.3990793150509411
  0.3337272257770938  0.9175865262081381  0.3992553920255473
  0.4585244750567416  0.0421964847151734  0.3993773447896876
  0.4589053007106935  0.1684043607754341  0.4000571728956784
  0.4598821657499786  0.2951587251953884  0.4023167032589684
  0.4641961075728303  0.4230012512911042  0.4082947480809452
  0.4545801103807031  0.6610798693306461  0.4028333872539603
  0.4576957181944650  0.7897229933644532  0.4005849934314616
  0.4582508753348498  0.9161578664233097  0.3996747988496238
  0.5830801281313751  0.0409054533528967  0.3992662481593358
  0.5834544910203957  0.1666907303409061  0.3988661391889461
  0.5841436715180868  0.2923668512876877  0.3994152919278608
  0.5864617086716307  0.4181911178556709  0.4012874776031121
  0.5886439069114704  0.5438926629941249  0.4041257483659066
  0.5825875528583799  0.6617307121704625  0.4048428194879291
  0.5813125705835595  0.7873333398634131  0.4024724767651864
  0.5826880867171812  0.9147160513258904  0.4005064172466464
  0.7077727775697664  0.0405497874910716  0.3995028769507502
  0.7081129681862850  0.1660647451033834  0.3985291621212207
  0.7085949507267479  0.2914916849087475  0.3979658099372254
  0.7098746933650389  0.4168710846538218  0.3982110180209339
  0.7110586883741513  0.5422027445238283  0.3995570482949710
  0.7104782088909974  0.6674052482519874  0.4012890907711397
  0.7077007479383076  0.7902558914693097  0.4016218587267976
  0.7071937344514416  0.9148063597049471  0.4008497940853573
  0.8328155778040225  0.0409403638696652  0.3996363250756052
  0.8329083278435762  0.1660665950468990  0.3987416080106389
  0.8331206850007385  0.2912327565746142  0.3978442305179603
  0.8338566488341016  0.4165855332772950  0.3972506199876492
  0.8347101295924075  0.5420945822728931  0.3975137170915747
  0.8349351256888227  0.6674764706663711  0.3987204931034903
  0.8342482605998871  0.7923410540496185  0.3999353181240778
  0.8331816652511391  0.9163630430824174  0.4002299177990967
  0.9586415112369288  0.0421674321965996  0.3997570337142122
  0.9580585771300957  0.1665512822052859  0.3992495824697328
  0.9577969648484268  0.2914404427180559  0.3983104039762849
  0.9580300566648711  0.4165706616058948  0.3973573654652505
  0.9586966808819416  0.5419376858707393  0.3970379643140311
  0.9592989628707972  0.6674358759811123  0.3975588286519723
  0.9593773222337348  0.7928050426931873  0.3987555465349099
  0.9591539587185604  0.9177441826252368  0.3996541063995794
  0.4110274591768779  0.5800985580300611  0.4037877686152862
  0.5459019358375929  0.5813020127170208  0.4075869921086963
  0.3314553132893078  0.4209790948224496  0.4069736606205654
  0.4407411852467673  0.5100937625691613  0.4906466271915152
 
  0.00000000E+00  0.00000000E+00  0.00000000E+00
  0.00000000E+00  0.00000000E+00  0.00000000E+00
  0.00000000E+00  0.00000000E+00  0.00000000E+00
  0.00000000E+00  0.00000000E+00  0.00000000E+00
  0.00000000E+00  0.00000000E+00  0.00000000E+00
  0.00000000E+00  0.00000000E+00  0.00000000E+00
  0.00000000E+00  0.00000000E+00  0.00000000E+00
  0.00000000E+00  0.00000000E+00  0.00000000E+00
  0.00000000E+00  0.00000000E+00  0.00000000E+00
  0.00000000E+00  0.00000000E+00  0.00000000E+00
  0.00000000E+00  0.00000000E+00  0.00000000E+00
  0.00000000E+00  0.00000000E+00  0.00000000E+00
  0.00000000E+00  0.00000000E+00  0.00000000E+00
  0.00000000E+00  0.00000000E+00  0.00000000E+00
  0.00000000E+00  0.00000000E+00  0.00000000E+00
  0.00000000E+00  0.00000000E+00  0.00000000E+00
  0.00000000E+00  0.00000000E+00  0.00000000E+00
  0.00000000E+00  0.00000000E+00  0.00000000E+00
  0.00000000E+00  0.00000000E+00  0.00000000E+00
  0.00000000E+00  0.00000000E+00  0.00000000E+00
  0.00000000E+00  0.00000000E+00  0.00000000E+00
  0.00000000E+00  0.00000000E+00  0.00000000E+00
  0.00000000E+00  0.00000000E+00  0.00000000E+00
  0.00000000E+00  0.00000000E+00  0.00000000E+00
  0.00000000E+00  0.00000000E+00  0.00000000E+00
  0.00000000E+00  0.00000000E+00  0.00000000E+00
  0.00000000E+00  0.00000000E+00  0.00000000E+00
  0.00000000E+00  0.00000000E+00  0.00000000E+00
  0.00000000E+00  0.00000000E+00  0.00000000E+00
  0.00000000E+00  0.00000000E+00  0.00000000E+00
  0.00000000E+00  0.00000000E+00  0.00000000E+00
  0.00000000E+00  0.00000000E+00  0.00000000E+00
  0.00000000E+00  0.00000000E+00  0.00000000E+00
  0.00000000E+00  0.00000000E+00  0.00000000E+00
  0.00000000E+00  0.00000000E+00  0.00000000E+00
  0.00000000E+00  0.00000000E+00  0.00000000E+00
  0.00000000E+00  0.00000000E+00  0.00000000E+00
  0.00000000E+00  0.00000000E+00  0.00000000E+00
  0.00000000E+00  0.00000000E+00  0.00000000E+00
  0.00000000E+00  0.00000000E+00  0.00000000E+00
  0.00000000E+00  0.00000000E+00  0.00000000E+00
  0.00000000E+00  0.00000000E+00  0.00000000E+00
  0.00000000E+00  0.00000000E+00  0.00000000E+00
  0.00000000E+00  0.00000000E+00  0.00000000E+00
  0.00000000E+00  0.00000000E+00  0.00000000E+00
  0.00000000E+00  0.00000000E+00  0.00000000E+00
  0.00000000E+00  0.00000000E+00  0.00000000E+00
  0.00000000E+00  0.00000000E+00  0.00000000E+00
  0.00000000E+00  0.00000000E+00  0.00000000E+00
  0.00000000E+00  0.00000000E+00  0.00000000E+00
  0.00000000E+00  0.00000000E+00  0.00000000E+00
  0.00000000E+00  0.00000000E+00  0.00000000E+00
  0.00000000E+00  0.00000000E+00  0.00000000E+00
  0.00000000E+00  0.00000000E+00  0.00000000E+00
  0.00000000E+00  0.00000000E+00  0.00000000E+00
  0.00000000E+00  0.00000000E+00  0.00000000E+00
  0.00000000E+00  0.00000000E+00  0.00000000E+00
  0.00000000E+00  0.00000000E+00  0.00000000E+00
  0.00000000E+00  0.00000000E+00  0.00000000E+00
  0.00000000E+00  0.00000000E+00  0.00000000E+00
  0.00000000E+00  0.00000000E+00  0.00000000E+00
  0.00000000E+00  0.00000000E+00  0.00000000E+00
  0.00000000E+00  0.00000000E+00  0.00000000E+00
  0.00000000E+00  0.00000000E+00  0.00000000E+00
  0.00000000E+00  0.00000000E+00  0.00000000E+00
  0.00000000E+00  0.00000000E+00  0.00000000E+00
  0.00000000E+00  0.00000000E+00  0.00000000E+00
  0.00000000E+00  0.00000000E+00  0.00000000E+00
  0.00000000E+00  0.00000000E+00  0.00000000E+00
  0.00000000E+00  0.00000000E+00  0.00000000E+00
  0.00000000E+00  0.00000000E+00  0.00000000E+00
  0.00000000E+00  0.00000000E+00  0.00000000E+00
  0.00000000E+00  0.00000000E+00  0.00000000E+00
  0.00000000E+00  0.00000000E+00  0.00000000E+00
  0.00000000E+00  0.00000000E+00  0.00000000E+00
  0.00000000E+00  0.00000000E+00  0.00000000E+00
  0.00000000E+00  0.00000000E+00  0.00000000E+00
  0.00000000E+00  0.00000000E+00  0.00000000E+00
  0.00000000E+00  0.00000000E+00  0.00000000E+00
  0.00000000E+00  0.00000000E+00  0.00000000E+00
  0.00000000E+00  0.00000000E+00  0.00000000E+00
  0.00000000E+00  0.00000000E+00  0.00000000E+00
  0.00000000E+00  0.00000000E+00  0.00000000E+00
  0.00000000E+00  0.00000000E+00  0.00000000E+00
  0.00000000E+00  0.00000000E+00  0.00000000E+00
  0.00000000E+00  0.00000000E+00  0.00000000E+00
  0.00000000E+00  0.00000000E+00  0.00000000E+00
  0.00000000E+00  0.00000000E+00  0.00000000E+00
  0.00000000E+00  0.00000000E+00  0.00000000E+00
  0.00000000E+00  0.00000000E+00  0.00000000E+00
  0.00000000E+00  0.00000000E+00  0.00000000E+00
  0.00000000E+00  0.00000000E+00  0.00000000E+00
  0.00000000E+00  0.00000000E+00  0.00000000E+00
  0.00000000E+00  0.00000000E+00  0.00000000E+00
  0.00000000E+00  0.00000000E+00  0.00000000E+00
  0.00000000E+00  0.00000000E+00  0.00000000E+00
  0.00000000E+00  0.00000000E+00  0.00000000E+00
  0.00000000E+00  0.00000000E+00  0.00000000E+00
  0.00000000E+00  0.00000000E+00  0.00000000E+00
  0.00000000E+00  0.00000000E+00  0.00000000E+00
  0.00000000E+00  0.00000000E+00  0.00000000E+00
  0.00000000E+00  0.00000000E+00  0.00000000E+00
  0.00000000E+00  0.00000000E+00  0.00000000E+00
  0.00000000E+00  0.00000000E+00  0.00000000E+00
  0.00000000E+00  0.00000000E+00  0.00000000E+00
  0.00000000E+00  0.00000000E+00  0.00000000E+00
  0.00000000E+00  0.00000000E+00  0.00000000E+00
  0.00000000E+00  0.00000000E+00  0.00000000E+00
  0.00000000E+00  0.00000000E+00  0.00000000E+00
  0.00000000E+00  0.00000000E+00  0.00000000E+00
  0.00000000E+00  0.00000000E+00  0.00000000E+00
  0.00000000E+00  0.00000000E+00  0.00000000E+00
  0.00000000E+00  0.00000000E+00  0.00000000E+00
  0.00000000E+00  0.00000000E+00  0.00000000E+00
  0.00000000E+00  0.00000000E+00  0.00000000E+00
  0.00000000E+00  0.00000000E+00  0.00000000E+00
  0.00000000E+00  0.00000000E+00  0.00000000E+00
  0.00000000E+00  0.00000000E+00  0.00000000E+00
  0.00000000E+00  0.00000000E+00  0.00000000E+00
  0.00000000E+00  0.00000000E+00  0.00000000E+00
  0.00000000E+00  0.00000000E+00  0.00000000E+00
  0.00000000E+00  0.00000000E+00  0.00000000E+00
  0.00000000E+00  0.00000000E+00  0.00000000E+00
  0.00000000E+00  0.00000000E+00  0.00000000E+00
  0.00000000E+00  0.00000000E+00  0.00000000E+00
  0.00000000E+00  0.00000000E+00  0.00000000E+00
  0.00000000E+00  0.00000000E+00  0.00000000E+00
  0.00000000E+00  0.00000000E+00  0.00000000E+00
  0.00000000E+00  0.00000000E+00  0.00000000E+00
