Cd1 H1 C124 N2 O2                       
   1.00000000000000     
    19.7785863659075183   -0.0347338041087743    0.7177654350433412
    -9.9175916305057612   17.0777930385076324   -0.1488682041543890
     1.0760400185570906    0.3666056216804965   29.8643336838012274
   Cd   H    C    N    O 
     1     1   124     2     2
Direct
  0.4285210358723489  0.4934999230735290  0.4523644865353537
  0.5757137443092269  0.5726565852542929  0.5369972258407681
  0.0417661540538830  0.0840482311381397  0.3990371017696372
  0.0416497826648027  0.2086074627394048  0.3977798303968018
  0.0414760911298098  0.3333203566100005  0.3959919797454552
  0.0412928819403939  0.4584944954581733  0.3957082930165036
  0.0411376490206359  0.5836353557057614  0.3969404674135126
  0.0411391989208256  0.7088035611915735  0.3984284982959766
  0.0412911544749742  0.8340022785962955  0.3993302890987586
  0.0416250155251223  0.9592087673388636  0.3995485750927823
  0.1672146464862186  0.0851779228824092  0.4006022485676732
  0.1672511365396359  0.2099984375903448  0.4003692457232055
  0.1664580231742212  0.3343301149527269  0.3988775473982690
  0.1657911380214762  0.4588880608538554  0.3955802532262040
  0.1656120284489871  0.5838998505708347  0.3962124237674512
  0.1658009394860543  0.7090359841879266  0.3977223460504041
  0.1661245788451847  0.8342124633157835  0.3989970465037113
  0.1665382675804939  0.9595484333067418  0.3999019372040839
  0.2918103571400054  0.0848444699055614  0.4005282881973732
  0.2931917828821085  0.2118496970043309  0.4030326668927954
  0.2911907885069853  0.3367491085015973  0.4089432409851392
  0.2886606496404674  0.4589887127497162  0.4057303523671670
  0.2893048919584322  0.5845795748681715  0.3991187628341478
  0.2901221537504045  0.7092240662216326  0.3982490015974987
  0.2908465100066014  0.8340589146709304  0.3988193797967283
  0.2912269777388632  0.9592088516118624  0.3995650101783442
  0.4164388490393695  0.0833194761787381  0.4000154558627138
  0.4169371319565702  0.2083925239374061  0.4012047613928269
  0.4202255435056790  0.3358210282847708  0.4036708305022012
  0.4139289336969569  0.7080453275197893  0.4015390351774460
  0.4153852000081999  0.8331757304397133  0.3998417415912625
  0.4159611634965256  0.9582280219180257  0.3995328179524266
  0.5412203727849018  0.0823164868609185  0.3996164338240308
  0.5417988225356348  0.2072503637393482  0.3996826654014244
  0.5427110571281020  0.3319060809595353  0.3999034338494916
  0.5418391122356493  0.4539846239576392  0.4007151405049285
  0.5448865828794944  0.5814020472024000  0.4073083838586475
  0.5372976387930342  0.7042775835905920  0.4040731792132288
  0.5396597645378662  0.8314332641476783  0.4013024684756469
  0.5406785094777894  0.9571008894956244  0.3999621232625090
  0.6659921887682465  0.0820030688455206  0.3994751571692662
  0.6665845973371838  0.2072079095149990  0.3990914323294240
  0.6672296626966565  0.3322586271292792  0.3987427379128756
  0.6680332727715897  0.4573553503520625  0.3985601716461276
  0.6671589568706234  0.5819260880300188  0.3990221169781470
  0.6649024791486436  0.7062326407275457  0.4014676709504598
  0.6642588713161098  0.8307441787391190  0.4013610143944363
  0.6653372370868335  0.9566362544856227  0.4002532451624817
  0.7909288888221997  0.0821399093252196  0.3990896345528958
  0.7913372414691332  0.2073053287803618  0.3985307735058537
  0.7918464348127016  0.3325710525040381  0.3982082553958869
  0.7922443164663429  0.4578311173266323  0.3981434331592328
  0.7919865097591848  0.5829239536822680  0.3983414611134371
  0.7911001319871079  0.7076590689723598  0.3993552798457917
  0.7904273192356329  0.8322050796417921  0.4000100918439435
  0.7902978712271493  0.9568618032706819  0.3997917642316002
  0.9161682662755548  0.0828137776037900  0.3985471660318146
  0.9163684311206535  0.2077704901385273  0.3976211873650014
  0.9165563533685833  0.3328712882732625  0.3968687424583955
  0.9166508298676378  0.4580702229901965  0.3971508533637619
  0.9166080534515303  0.5833402228319615  0.3980646979800633
  0.9163569501566198  0.7084995591495404  0.3988258853209434
  0.9161320037017684  0.8333543330673890  0.3994024748530330
  0.9160794454661627  0.9581004176913576  0.3992656248257733
  0.0836636832239456  0.0428844544238326  0.3997132097174122
  0.0837136822513433  0.1675858923582404  0.3987158619001239
  0.0833333753193802  0.2921441951199583  0.3971325791371494
  0.0828756132723796  0.4169257359173372  0.3953110045084243
  0.0825865374914377  0.5419858338238999  0.3960042241606070
  0.0826296581770275  0.6671746529585361  0.3976885763785993
  0.0828484065736275  0.7924042341862871  0.3989633690805717
  0.0831203829971237  0.9176103187734422  0.3996807648743501
  0.2083918007454342  0.0430908863748890  0.4004369773610698
  0.2092138519774913  0.1689774582287276  0.4016555175965690
  0.2087056396165907  0.2936110505793214  0.4019147853879099
  0.2073753496706327  0.4177808813363629  0.3980639036898550
  0.2068511182047581  0.5423391146166506  0.3964871921708246
  0.2072362934510182  0.6674132825829608  0.3972376139683815
  0.2075875732973467  0.7924667489621045  0.3984960545250023
  0.2079654510821497  0.9176908721202751  0.3995196735204067
  0.3331182527938554  0.0426201387559292  0.4000106963119390
  0.3337844621138226  0.1683946642529452  0.4014443850377896
  0.3348801993292305  0.2955990299552511  0.4062526308571684
  0.3251598913874272  0.4178553920038229  0.4181203369111135
  0.3314722307472302  0.5447346361491504  0.4037144629892566
  0.3312540461668191  0.6675012208456093  0.3994408175077003
  0.3322256189808027  0.7923301166150113  0.3989596684966906
  0.3327330822236906  0.9173522733181141  0.3992936739387652
  0.4579288846986356  0.0414107989743352  0.3997072962361962
  0.4583723192566448  0.1664175937082559  0.4003144790464817
  0.4594180264394787  0.2914355097474954  0.4014496726700449
  0.4525500811979903  0.6636395065955702  0.4040406925509206
  0.4566015671816088  0.7911990511801433  0.4009389671277683
  0.4573713215789229  0.9163292964077419  0.3997542958509773
  0.5826796326118873  0.0404831596009990  0.3996629416836516
  0.5832357476240150  0.1655751545858629  0.3994406822396105
  0.5840987356863134  0.2903316182715432  0.3992827607063137
  0.5851016770459355  0.4147445255719659  0.3995545909103143
  0.5834101402237842  0.5393222625933614  0.4012020580877772
  0.5801821775097238  0.6628753665344242  0.4044606655212844
  0.5799487014619510  0.7880538989174150  0.4022519880458103
  0.5818995224787238  0.9149793135062340  0.4004726304416320
  0.7073841242734588  0.0401625309600857  0.3996131017486702
  0.7080216231460396  0.1654820930592251  0.3990844639275526
  0.7086139533826522  0.2906679553497760  0.3987447130247269
  0.7092206779639175  0.4158586392789114  0.3984113059811318
  0.7091294962102505  0.5408586120314064  0.3982651235136531
  0.7074173867490700  0.6652778078758215  0.3999077973879158
  0.7065661560405030  0.7898603734628966  0.4009045235207247
  0.7065228858169549  0.9145621308090689  0.4004954014948761
  0.8324514285557753  0.0405442860880395  0.3991066806623106
  0.8329151397099686  0.1657457893273112  0.3984234932961487
  0.8332674916531297  0.2909245653282865  0.3979164131134401
  0.8335628006601615  0.4161241625881358  0.3978550576939047
  0.8335409693215483  0.5413262758813883  0.3982040619961628
  0.8331390066606589  0.6665073872493418  0.3987580164689720
  0.8326014678293456  0.7911386624833743  0.3996239270718794
  0.8323371002857243  0.9157571196299743  0.3996939316554028
  0.9581051983508688  0.0416955213239397  0.3988590762627878
  0.9581321208289995  0.1664098674687762  0.3978492979315864
  0.9581573686023617  0.2913070062027711  0.3966332371573471
  0.9581141266946331  0.4164597643769201  0.3964556155472835
  0.9580737771735894  0.5417037520415084  0.3973552914163958
  0.9579953181816907  0.6669007068878081  0.3984533701058477
  0.9579477546088073  0.7920025256747929  0.3992144724568336
  0.9580249233295340  0.9169807111855799  0.3993572019009740
  0.4097735874854743  0.5843598740749085  0.4057415620339525
  0.4633644494632889  0.4150715490981338  0.4024046139967173
  0.5367096030690096  0.5237705059703796  0.5241731944235072
  0.4816007544846327  0.5472158122312508  0.5116995113076385
 
  0.00000000E+00  0.00000000E+00  0.00000000E+00
  0.00000000E+00  0.00000000E+00  0.00000000E+00
  0.00000000E+00  0.00000000E+00  0.00000000E+00
  0.00000000E+00  0.00000000E+00  0.00000000E+00
  0.00000000E+00  0.00000000E+00  0.00000000E+00
  0.00000000E+00  0.00000000E+00  0.00000000E+00
  0.00000000E+00  0.00000000E+00  0.00000000E+00
  0.00000000E+00  0.00000000E+00  0.00000000E+00
  0.00000000E+00  0.00000000E+00  0.00000000E+00
  0.00000000E+00  0.00000000E+00  0.00000000E+00
  0.00000000E+00  0.00000000E+00  0.00000000E+00
  0.00000000E+00  0.00000000E+00  0.00000000E+00
  0.00000000E+00  0.00000000E+00  0.00000000E+00
  0.00000000E+00  0.00000000E+00  0.00000000E+00
  0.00000000E+00  0.00000000E+00  0.00000000E+00
  0.00000000E+00  0.00000000E+00  0.00000000E+00
  0.00000000E+00  0.00000000E+00  0.00000000E+00
  0.00000000E+00  0.00000000E+00  0.00000000E+00
  0.00000000E+00  0.00000000E+00  0.00000000E+00
  0.00000000E+00  0.00000000E+00  0.00000000E+00
  0.00000000E+00  0.00000000E+00  0.00000000E+00
  0.00000000E+00  0.00000000E+00  0.00000000E+00
  0.00000000E+00  0.00000000E+00  0.00000000E+00
  0.00000000E+00  0.00000000E+00  0.00000000E+00
  0.00000000E+00  0.00000000E+00  0.00000000E+00
  0.00000000E+00  0.00000000E+00  0.00000000E+00
  0.00000000E+00  0.00000000E+00  0.00000000E+00
  0.00000000E+00  0.00000000E+00  0.00000000E+00
  0.00000000E+00  0.00000000E+00  0.00000000E+00
  0.00000000E+00  0.00000000E+00  0.00000000E+00
  0.00000000E+00  0.00000000E+00  0.00000000E+00
  0.00000000E+00  0.00000000E+00  0.00000000E+00
  0.00000000E+00  0.00000000E+00  0.00000000E+00
  0.00000000E+00  0.00000000E+00  0.00000000E+00
  0.00000000E+00  0.00000000E+00  0.00000000E+00
  0.00000000E+00  0.00000000E+00  0.00000000E+00
  0.00000000E+00  0.00000000E+00  0.00000000E+00
  0.00000000E+00  0.00000000E+00  0.00000000E+00
  0.00000000E+00  0.00000000E+00  0.00000000E+00
  0.00000000E+00  0.00000000E+00  0.00000000E+00
  0.00000000E+00  0.00000000E+00  0.00000000E+00
  0.00000000E+00  0.00000000E+00  0.00000000E+00
  0.00000000E+00  0.00000000E+00  0.00000000E+00
  0.00000000E+00  0.00000000E+00  0.00000000E+00
  0.00000000E+00  0.00000000E+00  0.00000000E+00
  0.00000000E+00  0.00000000E+00  0.00000000E+00
  0.00000000E+00  0.00000000E+00  0.00000000E+00
  0.00000000E+00  0.00000000E+00  0.00000000E+00
  0.00000000E+00  0.00000000E+00  0.00000000E+00
  0.00000000E+00  0.00000000E+00  0.00000000E+00
  0.00000000E+00  0.00000000E+00  0.00000000E+00
  0.00000000E+00  0.00000000E+00  0.00000000E+00
  0.00000000E+00  0.00000000E+00  0.00000000E+00
  0.00000000E+00  0.00000000E+00  0.00000000E+00
  0.00000000E+00  0.00000000E+00  0.00000000E+00
  0.00000000E+00  0.00000000E+00  0.00000000E+00
  0.00000000E+00  0.00000000E+00  0.00000000E+00
  0.00000000E+00  0.00000000E+00  0.00000000E+00
  0.00000000E+00  0.00000000E+00  0.00000000E+00
  0.00000000E+00  0.00000000E+00  0.00000000E+00
  0.00000000E+00  0.00000000E+00  0.00000000E+00
  0.00000000E+00  0.00000000E+00  0.00000000E+00
  0.00000000E+00  0.00000000E+00  0.00000000E+00
  0.00000000E+00  0.00000000E+00  0.00000000E+00
  0.00000000E+00  0.00000000E+00  0.00000000E+00
  0.00000000E+00  0.00000000E+00  0.00000000E+00
  0.00000000E+00  0.00000000E+00  0.00000000E+00
  0.00000000E+00  0.00000000E+00  0.00000000E+00
  0.00000000E+00  0.00000000E+00  0.00000000E+00
  0.00000000E+00  0.00000000E+00  0.00000000E+00
  0.00000000E+00  0.00000000E+00  0.00000000E+00
  0.00000000E+00  0.00000000E+00  0.00000000E+00
  0.00000000E+00  0.00000000E+00  0.00000000E+00
  0.00000000E+00  0.00000000E+00  0.00000000E+00
  0.00000000E+00  0.00000000E+00  0.00000000E+00
  0.00000000E+00  0.00000000E+00  0.00000000E+00
  0.00000000E+00  0.00000000E+00  0.00000000E+00
  0.00000000E+00  0.00000000E+00  0.00000000E+00
  0.00000000E+00  0.00000000E+00  0.00000000E+00
  0.00000000E+00  0.00000000E+00  0.00000000E+00
  0.00000000E+00  0.00000000E+00  0.00000000E+00
  0.00000000E+00  0.00000000E+00  0.00000000E+00
  0.00000000E+00  0.00000000E+00  0.00000000E+00
  0.00000000E+00  0.00000000E+00  0.00000000E+00
  0.00000000E+00  0.00000000E+00  0.00000000E+00
  0.00000000E+00  0.00000000E+00  0.00000000E+00
  0.00000000E+00  0.00000000E+00  0.00000000E+00
  0.00000000E+00  0.00000000E+00  0.00000000E+00
  0.00000000E+00  0.00000000E+00  0.00000000E+00
  0.00000000E+00  0.00000000E+00  0.00000000E+00
  0.00000000E+00  0.00000000E+00  0.00000000E+00
  0.00000000E+00  0.00000000E+00  0.00000000E+00
  0.00000000E+00  0.00000000E+00  0.00000000E+00
  0.00000000E+00  0.00000000E+00  0.00000000E+00
  0.00000000E+00  0.00000000E+00  0.00000000E+00
  0.00000000E+00  0.00000000E+00  0.00000000E+00
  0.00000000E+00  0.00000000E+00  0.00000000E+00
  0.00000000E+00  0.00000000E+00  0.00000000E+00
  0.00000000E+00  0.00000000E+00  0.00000000E+00
  0.00000000E+00  0.00000000E+00  0.00000000E+00
  0.00000000E+00  0.00000000E+00  0.00000000E+00
  0.00000000E+00  0.00000000E+00  0.00000000E+00
  0.00000000E+00  0.00000000E+00  0.00000000E+00
  0.00000000E+00  0.00000000E+00  0.00000000E+00
  0.00000000E+00  0.00000000E+00  0.00000000E+00
  0.00000000E+00  0.00000000E+00  0.00000000E+00
  0.00000000E+00  0.00000000E+00  0.00000000E+00
  0.00000000E+00  0.00000000E+00  0.00000000E+00
  0.00000000E+00  0.00000000E+00  0.00000000E+00
  0.00000000E+00  0.00000000E+00  0.00000000E+00
  0.00000000E+00  0.00000000E+00  0.00000000E+00
  0.00000000E+00  0.00000000E+00  0.00000000E+00
  0.00000000E+00  0.00000000E+00  0.00000000E+00
  0.00000000E+00  0.00000000E+00  0.00000000E+00
  0.00000000E+00  0.00000000E+00  0.00000000E+00
  0.00000000E+00  0.00000000E+00  0.00000000E+00
  0.00000000E+00  0.00000000E+00  0.00000000E+00
  0.00000000E+00  0.00000000E+00  0.00000000E+00
  0.00000000E+00  0.00000000E+00  0.00000000E+00
  0.00000000E+00  0.00000000E+00  0.00000000E+00
  0.00000000E+00  0.00000000E+00  0.00000000E+00
  0.00000000E+00  0.00000000E+00  0.00000000E+00
  0.00000000E+00  0.00000000E+00  0.00000000E+00
  0.00000000E+00  0.00000000E+00  0.00000000E+00
  0.00000000E+00  0.00000000E+00  0.00000000E+00
  0.00000000E+00  0.00000000E+00  0.00000000E+00
  0.00000000E+00  0.00000000E+00  0.00000000E+00
  0.00000000E+00  0.00000000E+00  0.00000000E+00
  0.00000000E+00  0.00000000E+00  0.00000000E+00
  0.00000000E+00  0.00000000E+00  0.00000000E+00
