Cr1 H1 C125 N1                          
   1.00000000000000     
    19.7998869091108318   -0.0161198481300584    0.1129909968072601
    -9.9139834518485976   17.0593020105732442   -0.2444122547320662
     0.1697638918090950   -0.3281593199281327   29.8092060198942370
   Cr   H    C    N 
     1     1   125     1
Direct
  0.4364670935796184  0.5013418016424431  0.4270500362063813
  0.4481103792221235  0.4797209936547809  0.4771993614635880
  0.0420576552340828  0.0843504996088589  0.3997274422927625
  0.0415743344065300  0.2087676438898559  0.3999044641349239
  0.0410810647585468  0.3333314673363031  0.4000043960591447
  0.0409457853542066  0.4585712053098357  0.3999414618853517
  0.0413840000139377  0.5839267165447468  0.3997143286419113
  0.0418156168518044  0.7092035523046836  0.3996919654461045
  0.0420882048801102  0.8345213100470961  0.3996646331303210
  0.0421995874437524  0.9596028306176427  0.3995495719447468
  0.1676537102209234  0.0855023676826134  0.4000390729993645
  0.1676691855342146  0.2104770143278354  0.4004341354925383
  0.1666101814752482  0.3345569070160700  0.4003399436456734
  0.1651084899106972  0.4589288516928900  0.4003304431396336
  0.1654357880618681  0.5839962597022917  0.4001054016025896
  0.1662583238520402  0.7092974735220541  0.3999250744680479
  0.1668433196259241  0.8346454732522030  0.3997523833485325
  0.1672954399905019  0.9600374961293624  0.3997724414484236
  0.2925602825255830  0.0853714755561586  0.4002730150102557
  0.2934867553485342  0.2118092148341582  0.4019531347136421
  0.2939181903011377  0.3379732828306380  0.4023345763562181
  0.2899951797006383  0.4598414011901146  0.4007179847254282
  0.2893082088917014  0.5846466719137188  0.4002476367290058
  0.2906374797648877  0.7093880593515987  0.3999728126188558
  0.2914566512512666  0.8343556223016994  0.3997323852480686
  0.2919443339632144  0.9596714361913752  0.3995492329717167
  0.4170760829531686  0.0841021959185773  0.3996983678779371
  0.4177411136773281  0.2099116622420087  0.4013961811878640
  0.4194735825363752  0.3370608040590865  0.4061947186696414
  0.4147935649844615  0.7073598019868135  0.4002712294291462
  0.4160198379308103  0.8331067089680739  0.3998537236033610
  0.4165762223008260  0.9585967847925352  0.3995467817735465
  0.5416589256719014  0.0827997940996606  0.3994669527848281
  0.5422148682725929  0.2080804406968334  0.3999182708459910
  0.5430966202891204  0.3331979428023354  0.4020309783193386
  0.5452512141948972  0.4575959455420783  0.4058100360528234
  0.5431892353411643  0.5794457985935225  0.4068613095181026
  0.5383764372446301  0.7038924287740184  0.4020542435953238
  0.5403441549313450  0.8313485064077661  0.4002047831253162
  0.5411542529539466  0.9572809589185811  0.3998031395934404
  0.6662809676904700  0.0822473164396951  0.3998339980554984
  0.6668070455787908  0.2075742969441277  0.3994991000241991
  0.6674608713108160  0.3327987604273344  0.3996018782712853
  0.6688429531585605  0.4581054662527366  0.4001637648944996
  0.6692765403601563  0.5833191068587663  0.4011729923858418
  0.6653108173543424  0.7061247947273550  0.4011684061400170
  0.6647841129855930  0.8308426702498082  0.4005070610495480
  0.6657473196051623  0.9567695042567952  0.4001568941228696
  0.7910674034784673  0.0822760671092573  0.3998041709731355
  0.7914201800216771  0.2075057217296404  0.3996810723275216
  0.7919381835335806  0.3328495852141456  0.3993581504773727
  0.7927204527312015  0.4582688652710926  0.3990675406729985
  0.7931164172216455  0.5835128728534104  0.3991704715327630
  0.7922709062950866  0.7085346104143353  0.3995951640902455
  0.7908658212842472  0.8324036429145096  0.3998555708898894
  0.7906204542391597  0.9570223087000204  0.3999493208791753
  0.9162425403576577  0.0829583442029691  0.3996633673141008
  0.9162533315806226  0.2078568592868740  0.3996920281171076
  0.9163889412643931  0.3330187858288106  0.3996528907199882
  0.9167702451789065  0.4583206448400630  0.3993302927251871
  0.9172684566884619  0.5837706689663306  0.3992174262913865
  0.9172445160416924  0.7090693753676039  0.3993987105600025
  0.9169542335438303  0.8339117002650379  0.3995262748729830
  0.9164422850321162  0.9583699196990089  0.3995920872412119
  0.0840836681989730  0.0432062784672247  0.3996925855316805
  0.0839436560118542  0.1679264602090474  0.3999913360127934
  0.0830036338881844  0.2921518897607429  0.4000466137233758
  0.0822846573053800  0.4169299545145952  0.4001250453275690
  0.0824642902577109  0.5420935094523607  0.3999633847486484
  0.0831079357531678  0.6674573942643228  0.3997995647868046
  0.0835959015624690  0.7928465090723094  0.3997513914230192
  0.0838753539928283  0.9180963712401822  0.3996572634053486
  0.2091466600282264  0.0436216454916243  0.4000300610555932
  0.2096066858927363  0.1692286559176883  0.4006375156474676
  0.2095771109670691  0.2942922395985850  0.4007446788969627
  0.2068855502054035  0.4178593518247010  0.4004790239827205
  0.2063532318743891  0.5422655860780535  0.4002313213240770
  0.2075034045446204  0.6675820961461890  0.4000156683973243
  0.2082081336358582  0.7928088700870337  0.3998166045622810
  0.2086969425598676  0.9181612052499476  0.3996890109796932
  0.3337940521908633  0.0431479544911468  0.3997532538445765
  0.3345234826765567  0.1690100395458570  0.4013358826373005
  0.3355914037018097  0.2954551282541207  0.4040518791524421
  0.3332376816525727  0.4211835966821814  0.4025073055498238
  0.3311989424617375  0.5445413705124852  0.4008170105259936
  0.3318082162125066  0.6676359519736428  0.4001222964851497
  0.3328268962417114  0.7925410118425554  0.3998496276392605
  0.3333458304552294  0.9177053118602906  0.3995358326688752
  0.4584439771281617  0.0419571059887945  0.3994905499547025
  0.4589617194890822  0.1674907880253192  0.4001918158702050
  0.4598921063990591  0.2934510553599256  0.4030701462285746
  0.4636782898383678  0.4200214530036884  0.4110701078801257
  0.4541554175609174  0.6630831531278418  0.4015837649501834
  0.4572789179363786  0.7908248155704323  0.4000174350361185
  0.4579214775398265  0.9164521929249670  0.3997276819920946
  0.5830363607890404  0.0407773192372459  0.3996736118437135
  0.5835737358011570  0.1661815768536818  0.3994787686013813
  0.5842812682734106  0.2913166160904364  0.4003609597939223
  0.5859464750817003  0.4162250437299797  0.4022246136235652
  0.5871112513197548  0.5415913583414574  0.4045063431856943
  0.5807435565229931  0.6620522714547914  0.4031386057316184
  0.5807199336899147  0.7879849349232033  0.4008102759966199
  0.5824084793850456  0.9150471297475867  0.4000500745594021
  0.7076761331142237  0.0403477339160966  0.3999861851694761
  0.7081793858779796  0.1657736966856487  0.3996877196656958
  0.7087015623537881  0.2910524891862514  0.3993976846864354
  0.7097359991545646  0.4163872891556473  0.3993827077487715
  0.7104793707780568  0.5415938786448509  0.3999358114465675
  0.7089009246992003  0.6663953717571834  0.4004916660551433
  0.7069774502982239  0.7897772741505488  0.4003782559945073
  0.7069419187013385  0.9146595276232031  0.4002078965525519
  0.8326522920639466  0.0406911960461880  0.3997687280424225
  0.8328928620339592  0.1658416152445550  0.3996899131336131
  0.8332505885618721  0.2911191114416081  0.3995453162747504
  0.8337876532571930  0.4164134362254002  0.3991957981307817
  0.8343245432143797  0.5417716218722497  0.3990308426694733
  0.8341152578799920  0.6671633452133308  0.3992841955008756
  0.8335004363258628  0.7917927367901341  0.3996052181969709
  0.8327304267927836  0.9159516847372159  0.3997967174804238
  0.9583541665473704  0.0419308000329550  0.3996182675931589
  0.9580741998965444  0.1665206920322226  0.3997166176371312
  0.9578929482314115  0.2913772248691661  0.3997961885732216
  0.9579416245947051  0.4165609963629396  0.3996342088285845
  0.9584358609507240  0.5419996229195719  0.3993742014723333
  0.9587253057587845  0.6673590419082281  0.3994412073593278
  0.9587808591552938  0.7925686412818410  0.3995480075195398
  0.9586481579369217  0.9173934832055846  0.3995114144168731
  0.4107134308120557  0.5825896007085033  0.4025266295659483
 
  0.00000000E+00  0.00000000E+00  0.00000000E+00
  0.00000000E+00  0.00000000E+00  0.00000000E+00
  0.00000000E+00  0.00000000E+00  0.00000000E+00
  0.00000000E+00  0.00000000E+00  0.00000000E+00
  0.00000000E+00  0.00000000E+00  0.00000000E+00
  0.00000000E+00  0.00000000E+00  0.00000000E+00
  0.00000000E+00  0.00000000E+00  0.00000000E+00
  0.00000000E+00  0.00000000E+00  0.00000000E+00
  0.00000000E+00  0.00000000E+00  0.00000000E+00
  0.00000000E+00  0.00000000E+00  0.00000000E+00
  0.00000000E+00  0.00000000E+00  0.00000000E+00
  0.00000000E+00  0.00000000E+00  0.00000000E+00
  0.00000000E+00  0.00000000E+00  0.00000000E+00
  0.00000000E+00  0.00000000E+00  0.00000000E+00
  0.00000000E+00  0.00000000E+00  0.00000000E+00
  0.00000000E+00  0.00000000E+00  0.00000000E+00
  0.00000000E+00  0.00000000E+00  0.00000000E+00
  0.00000000E+00  0.00000000E+00  0.00000000E+00
  0.00000000E+00  0.00000000E+00  0.00000000E+00
  0.00000000E+00  0.00000000E+00  0.00000000E+00
  0.00000000E+00  0.00000000E+00  0.00000000E+00
  0.00000000E+00  0.00000000E+00  0.00000000E+00
  0.00000000E+00  0.00000000E+00  0.00000000E+00
  0.00000000E+00  0.00000000E+00  0.00000000E+00
  0.00000000E+00  0.00000000E+00  0.00000000E+00
  0.00000000E+00  0.00000000E+00  0.00000000E+00
  0.00000000E+00  0.00000000E+00  0.00000000E+00
  0.00000000E+00  0.00000000E+00  0.00000000E+00
  0.00000000E+00  0.00000000E+00  0.00000000E+00
  0.00000000E+00  0.00000000E+00  0.00000000E+00
  0.00000000E+00  0.00000000E+00  0.00000000E+00
  0.00000000E+00  0.00000000E+00  0.00000000E+00
  0.00000000E+00  0.00000000E+00  0.00000000E+00
  0.00000000E+00  0.00000000E+00  0.00000000E+00
  0.00000000E+00  0.00000000E+00  0.00000000E+00
  0.00000000E+00  0.00000000E+00  0.00000000E+00
  0.00000000E+00  0.00000000E+00  0.00000000E+00
  0.00000000E+00  0.00000000E+00  0.00000000E+00
  0.00000000E+00  0.00000000E+00  0.00000000E+00
  0.00000000E+00  0.00000000E+00  0.00000000E+00
  0.00000000E+00  0.00000000E+00  0.00000000E+00
  0.00000000E+00  0.00000000E+00  0.00000000E+00
  0.00000000E+00  0.00000000E+00  0.00000000E+00
  0.00000000E+00  0.00000000E+00  0.00000000E+00
  0.00000000E+00  0.00000000E+00  0.00000000E+00
  0.00000000E+00  0.00000000E+00  0.00000000E+00
  0.00000000E+00  0.00000000E+00  0.00000000E+00
  0.00000000E+00  0.00000000E+00  0.00000000E+00
  0.00000000E+00  0.00000000E+00  0.00000000E+00
  0.00000000E+00  0.00000000E+00  0.00000000E+00
  0.00000000E+00  0.00000000E+00  0.00000000E+00
  0.00000000E+00  0.00000000E+00  0.00000000E+00
  0.00000000E+00  0.00000000E+00  0.00000000E+00
  0.00000000E+00  0.00000000E+00  0.00000000E+00
  0.00000000E+00  0.00000000E+00  0.00000000E+00
  0.00000000E+00  0.00000000E+00  0.00000000E+00
  0.00000000E+00  0.00000000E+00  0.00000000E+00
  0.00000000E+00  0.00000000E+00  0.00000000E+00
  0.00000000E+00  0.00000000E+00  0.00000000E+00
  0.00000000E+00  0.00000000E+00  0.00000000E+00
  0.00000000E+00  0.00000000E+00  0.00000000E+00
  0.00000000E+00  0.00000000E+00  0.00000000E+00
  0.00000000E+00  0.00000000E+00  0.00000000E+00
  0.00000000E+00  0.00000000E+00  0.00000000E+00
  0.00000000E+00  0.00000000E+00  0.00000000E+00
  0.00000000E+00  0.00000000E+00  0.00000000E+00
  0.00000000E+00  0.00000000E+00  0.00000000E+00
  0.00000000E+00  0.00000000E+00  0.00000000E+00
  0.00000000E+00  0.00000000E+00  0.00000000E+00
  0.00000000E+00  0.00000000E+00  0.00000000E+00
  0.00000000E+00  0.00000000E+00  0.00000000E+00
  0.00000000E+00  0.00000000E+00  0.00000000E+00
  0.00000000E+00  0.00000000E+00  0.00000000E+00
  0.00000000E+00  0.00000000E+00  0.00000000E+00
  0.00000000E+00  0.00000000E+00  0.00000000E+00
  0.00000000E+00  0.00000000E+00  0.00000000E+00
  0.00000000E+00  0.00000000E+00  0.00000000E+00
  0.00000000E+00  0.00000000E+00  0.00000000E+00
  0.00000000E+00  0.00000000E+00  0.00000000E+00
  0.00000000E+00  0.00000000E+00  0.00000000E+00
  0.00000000E+00  0.00000000E+00  0.00000000E+00
  0.00000000E+00  0.00000000E+00  0.00000000E+00
  0.00000000E+00  0.00000000E+00  0.00000000E+00
  0.00000000E+00  0.00000000E+00  0.00000000E+00
  0.00000000E+00  0.00000000E+00  0.00000000E+00
  0.00000000E+00  0.00000000E+00  0.00000000E+00
  0.00000000E+00  0.00000000E+00  0.00000000E+00
  0.00000000E+00  0.00000000E+00  0.00000000E+00
  0.00000000E+00  0.00000000E+00  0.00000000E+00
  0.00000000E+00  0.00000000E+00  0.00000000E+00
  0.00000000E+00  0.00000000E+00  0.00000000E+00
  0.00000000E+00  0.00000000E+00  0.00000000E+00
  0.00000000E+00  0.00000000E+00  0.00000000E+00
  0.00000000E+00  0.00000000E+00  0.00000000E+00
  0.00000000E+00  0.00000000E+00  0.00000000E+00
  0.00000000E+00  0.00000000E+00  0.00000000E+00
  0.00000000E+00  0.00000000E+00  0.00000000E+00
  0.00000000E+00  0.00000000E+00  0.00000000E+00
  0.00000000E+00  0.00000000E+00  0.00000000E+00
  0.00000000E+00  0.00000000E+00  0.00000000E+00
  0.00000000E+00  0.00000000E+00  0.00000000E+00
  0.00000000E+00  0.00000000E+00  0.00000000E+00
  0.00000000E+00  0.00000000E+00  0.00000000E+00
  0.00000000E+00  0.00000000E+00  0.00000000E+00
  0.00000000E+00  0.00000000E+00  0.00000000E+00
  0.00000000E+00  0.00000000E+00  0.00000000E+00
  0.00000000E+00  0.00000000E+00  0.00000000E+00
  0.00000000E+00  0.00000000E+00  0.00000000E+00
  0.00000000E+00  0.00000000E+00  0.00000000E+00
  0.00000000E+00  0.00000000E+00  0.00000000E+00
  0.00000000E+00  0.00000000E+00  0.00000000E+00
  0.00000000E+00  0.00000000E+00  0.00000000E+00
  0.00000000E+00  0.00000000E+00  0.00000000E+00
  0.00000000E+00  0.00000000E+00  0.00000000E+00
  0.00000000E+00  0.00000000E+00  0.00000000E+00
  0.00000000E+00  0.00000000E+00  0.00000000E+00
  0.00000000E+00  0.00000000E+00  0.00000000E+00
  0.00000000E+00  0.00000000E+00  0.00000000E+00
  0.00000000E+00  0.00000000E+00  0.00000000E+00
  0.00000000E+00  0.00000000E+00  0.00000000E+00
  0.00000000E+00  0.00000000E+00  0.00000000E+00
  0.00000000E+00  0.00000000E+00  0.00000000E+00
  0.00000000E+00  0.00000000E+00  0.00000000E+00
  0.00000000E+00  0.00000000E+00  0.00000000E+00
  0.00000000E+00  0.00000000E+00  0.00000000E+00
  0.00000000E+00  0.00000000E+00  0.00000000E+00
  0.00000000E+00  0.00000000E+00  0.00000000E+00
  0.00000000E+00  0.00000000E+00  0.00000000E+00
